NAME lp_100x50
ROWS
 N obj
 G c0
 G c1
 G c2
 G c3
 G c4
 G c5
 G c6
 G c7
 G c8
 G c9
 G c10
 G c11
 G c12
 G c13
 G c14
 G c15
 G c16
 G c17
 G c18
 G c19
 G c20
 G c21
 G c22
 G c23
 G c24
 G c25
 G c26
 G c27
 G c28
 G c29
 G c30
 G c31
 G c32
 G c33
 G c34
 G c35
 G c36
 G c37
 G c38
 G c39
 G c40
 G c41
 G c42
 G c43
 G c44
 G c45
 G c46
 G c47
 G c48
 G c49
COLUMNS
    x0        obj        4.6596749132209201
    x0        c8         1.0917103293993811
    x0        c17         0.3809107293517664
    x0        c19         1.2422169512043975
    x0        c31         0.4269304133242755
    x0        c35         1.1000743948885461
    x0        c49         0.87621031063266497
    x1        obj        8.1015682030763401
    x1        c13         1.8795861502844942
    x1        c15         0.99979364762741674
    x1        c20         1.6550483236322528
    x1        c26         1.9518752358236158
    x1        c29         1.9641101866938879
    x1        c46         1.8447431575120139
    x2        obj        1.0128048638961946
    x2        c0         1.713584837982516
    x2        c2         0.54992718683694308
    x2        c9         1.5839810923008744
    x2        c12         0.95382720029220536
    x2        c34         1.7897762069798044
    x2        c36         0.38341465386460993
    x3        obj        1.3882363144830148
    x3        c21         0.61854700867648027
    x3        c37         1.8130342821326466
    x4        obj        8.3516915503485407
    x4        c0         0.85896899346814526
    x4        c1         1.036212052187496
    x4        c14         1.6028631557917785
    x4        c16         0.37172621753738166
    x4        c39         1.562020473445717
    x4        c41         1.7528580326364498
    x5        obj        5.7799067275165008
    x5        c25         0.77099212725555766
    x5        c28         1.809007069402224
    x5        c29         1.1010048377122459
    x6        obj        1.6176128870343369
    x6        c13         0.98039520916892964
    x6        c18         1.693626790208373
    x6        c24         1.3221919276037053
    x6        c29         0.18477840551757607
    x6        c31         0.60351585976086009
    x6        c38         0.22314032329180741
    x6        c44         1.884391731598809
    x6        c48         0.11334199922407957
    x7        obj        3.0032174851332769
    x7        c2         0.94192205540654927
    x7        c12         1.7584450087766115
    x7        c26         1.1710474158983086
    x7        c39         0.5259829482841839
    x8        obj        1.4520290086951566
    x8        c10         0.15985935095467796
    x8        c11         0.30571810141208722
    x8        c12         0.72362407276246976
    x8        c23         1.216414743864958
    x8        c25         1.6814802773355129
    x8        c31         0.38639030160282917
    x9        obj        3.0693556741379679
    x9        c4         0.6064309629444351
    x9        c10         1.4629928436648645
    x9        c21         1.9622897831274078
    x9        c45         1.648832214382226
    x10        obj        8.9976995209644954
    x10        c1         1.0540031251413735
    x10        c3         1.6536097008380279
    x10        c6         0.3846639364198885
    x10        c7         1.4657848734815861
    x10        c35         0.27844801394582097
    x10        c47         1.9422602574407302
    x11        obj        6.0378869257640151
    x11        c7         1.9133437904666386
    x11        c29         1.1438075138005259
    x11        c30         0.87729186724690289
    x12        obj        1.6721087132828369
    x12        c6         1.8025531767275855
    x12        c9         0.51396335085706191
    x12        c22         0.30921047992448181
    x12        c42         0.9382489385142323
    x12        c43         1.4560590611796853
    x13        obj        5.9197505499966221
    x13        c20         1.735287251634098
    x13        c28         0.86814823807124153
    x13        c30         0.39878426751722307
    x13        c36         0.71096445050822032
    x13        c40         0.58901484142690241
    x13        c42         0.25969198726816073
    x14        obj        6.9031394633799312
    x14        c0         1.5134290277054141
    x14        c12         0.79547532959676026
    x14        c15         1.1294651605283925
    x14        c18         1.9816738019588322
    x14        c49         0.6124088018017152
    x15        obj        4.9369678574168052
    x15        c2         1.66294827388736
    x15        c3         0.74237241120092945
    x15        c5         0.99398765819676327
    x15        c28         0.94508802588067442
    x15        c32         0.96911692534858707
    x15        c46         1.8366113984197996
    x15        c47         1.2621814856756934
    x16        obj        7.6214031342905146
    x16        c0         0.75307615945742346
    x16        c2         0.73836642124227125
    x16        c16         1.8925609221349589
    x16        c31         1.8220154088814917
    x16        c39         0.72411591010701204
    x17        obj        2.1498893629658706
    x17        c12         0.52434061766624629
    x17        c16         0.28618927383526127
    x17        c21         0.97698138353482011
    x17        c32         0.73574867551463463
    x17        c39         1.30035915874874
    x18        obj        8.8957784927303916
    x18        c5         1.1976198197139922
    x18        c19         0.84075314209819085
    x18        c21         1.8011665811876323
    x18        c32         1.3487893646374978
    x18        c34         0.69259581442743379
    x18        c43         0.34526581640566034
    x19        obj        8.6635492107815288
    x19        c22         0.14538252319868356
    x19        c28         0.41166847033697407
    x19        c31         1.0562799771286364
    x19        c36         0.34988923289193752
    x20        obj        6.3538514388825602
    x20        c3         1.3274512886485772
    x20        c9         1.6535454558409881
    x20        c14         1.135741591428902
    x20        c19         1.0913885743790179
    x20        c40         0.92254422307243877
    x21        obj        7.376187547132715
    x21        c1         1.2432460681273165
    x21        c5         1.0797433536058807
    x21        c9         1.3714117584409744
    x21        c16         1.1225186692221225
    x21        c21         1.6046873292173798
    x21        c22         0.43788869819781207
    x21        c23         0.95800288618473517
    x21        c46         0.96789773527980405
    x21        c49         0.58053706440323849
    x22        obj        5.0584430588600764
    x22        c5         0.43416266911077772
    x22        c9         1.7810566540878985
    x22        c33         1.424485727796621
    x22        c47         0.34748518878065571
    x22        c48         0.34769884663663958
    x23        obj        1.5630263359842886
    x24        obj        7.3222096383082418
    x24        c1         1.5359608922974564
    x24        c13         1.1349648353407789
    x24        c25         1.5845821347417466
    x24        c31         1.0105923290952279
    x24        c33         0.37625717625211852
    x25        obj        1.853891304070463
    x25        c17         0.27709820487499398
    x25        c32         1.1962264488728593
    x25        c44         0.67488530838580763
    x25        c45         1.1187070341244392
    x26        obj        4.5180932914610397
    x26        c13         1.216035082994914
    x26        c14         0.85693855566346044
    x26        c21         1.868868845495578
    x26        c45         1.2840510586038278
    x27        obj        5.1198098505994984
    x27        c3         0.64028001213595631
    x27        c7         1.8362881737630217
    x27        c8         1.3402752850632262
    x27        c24         0.39179060713476577
    x27        c30         0.92335276905598973
    x28        obj        8.8114427742864159
    x28        c29         0.93147038320734032
    x28        c35         1.6460549302094967
    x28        c47         0.35595581308233626
    x29        obj        4.0308922353849193
    x29        c0         0.42348060095487827
    x29        c10         0.58085374165884429
    x29        c15         0.83142763482161131
    x29        c40         0.231369370390376
    x29        c43         1.2901612517173877
    x30        obj        3.6320351847520467
    x30        c6         0.8020424852627408
    x30        c13         0.2327359319163699
    x30        c24         0.12669635669873036
    x30        c35         1.2248739272454534
    x30        c36         1.3930330586080741
    x30        c48         0.7403004756533792
    x30        c49         1.0964815877321505
    x31        obj        1.3050521913977613
    x31        c1         0.28699893858888936
    x31        c43         0.65763027813162023
    x31        c44         1.2688498110792827
    x32        obj        3.6314412180111537
    x32        c3         1.5146315864196342
    x32        c11         1.1771888642273718
    x32        c13         1.5224057177989172
    x32        c21         0.56037372087171577
    x32        c28         0.52715670050358632
    x32        c36         1.2980253543562748
    x33        obj        2.1387893307819477
    x33        c16         1.0139364318498481
    x33        c18         1.9844633685691822
    x33        c20         0.21375134501603937
    x33        c23         0.14401543021413615
    x33        c39         0.73323886691517304
    x33        c47         1.8615830857513684
    x34        obj        3.8910211035869158
    x34        c14         0.59361419312326003
    x34        c20         0.37421213064938796
    x34        c30         1.5836567006596969
    x34        c47         1.0539289158178462
    x35        obj        5.7561893938692839
    x35        c12         1.2362435524823079
    x35        c14         1.6814182384732186
    x35        c23         0.60508509782231357
    x35        c30         0.1830998237105696
    x35        c39         1.1615875300741783
    x35        c43         1.4547172412327765
    x35        c48         1.9819721677015287
    x36        obj        4.6954689562802514
    x36        c5         1.8948593859846361
    x36        c19         1.1632353242560067
    x36        c32         0.45986837255369417
    x37        obj        7.3689313166489674
    x37        c17         1.6420966505929881
    x37        c23         1.0107859215641799
    x37        c27         0.97910273768204292
    x37        c43         1.3611890250401517
    x37        c46         1.2845188959680884
    x38        obj        1.6693499732382957
    x38        c9         1.1494571715632473
    x38        c23         0.79650044055075386
    x38        c25         1.1409714696149953
    x39        obj        8.4822129198564262
    x39        c5         0.35342530336074174
    x39        c24         0.96797364705508604
    x40        obj        1.3633538183035236
    x40        c0         1.3775328382844683
    x40        c16         1.6373531745609311
    x40        c22         1.7921919767573564
    x40        c27         1.2276035429356924
    x40        c37         0.33552394919823147
    x40        c48         1.3729550843319913
    x41        obj        4.6057052141584727
    x41        c0         1.6441099919828752
    x41        c30         0.77710075090529473
    x42        obj        9.4435527570396811
    x42        c6         0.72737894087809718
    x42        c27         1.1099830739045997
    x42        c38         0.48801194807275183
    x42        c42         1.9481472764965002
    x43        obj        7.2559279783330402
    x43        c2         1.9541964699323131
    x43        c10         1.4829206825078329
    x43        c12         1.2311047935848629
    x43        c24         0.31197432017247473
    x43        c49         1.0989955444262991
    x44        obj        1.7047266962204675
    x44        c28         0.53139125582499858
    x44        c33         0.32236628481466412
    x44        c40         0.80693150202847441
    x45        obj        3.8498447443589665
    x45        c7         1.6978194505645967
    x45        c12         0.83295470638842461
    x45        c15         1.9450716349103161
    x45        c24         1.594146141010103
    x45        c33         0.13965088573780099
    x45        c41         1.3902180206328907
    x46        obj        8.4210194804293721
    x46        c1         1.0509585035764955
    x46        c11         0.25746625854722471
    x46        c22         0.16029830615516613
    x46        c35         1.5452937066876116
    x46        c47         1.4989273691497909
    x47        obj        1.5470136028360368
    x47        c2         1.4114727245811785
    x47        c16         1.8220635411491806
    x47        c18         1.4289984436169176
    x47        c38         0.17812166870134621
    x48        obj        4.2610526821199581
    x48        c18         1.610219427977627
    x48        c19         1.8566781528975882
    x48        c33         0.23047008930376495
    x49        obj        5.7655075815868173
    x49        c8         1.3294693446053427
    x50        obj        7.3356053106660024
    x50        c30         0.82089933012732574
    x50        c34         0.12891421554177696
    x50        c40         0.53753319812595513
    x51        obj        2.6653139300079216
    x51        c15         1.0238674282863929
    x51        c28         1.496050491238426
    x51        c38         1.4949444471628703
    x52        obj        8.816164129033691
    x52        c0         1.1869365969390271
    x52        c11         1.0087173649295287
    x52        c19         0.56949252546219697
    x52        c22         1.2412906330355136
    x52        c26         1.9839655158943961
    x52        c35         0.79199036516302324
    x52        c49         0.29467415618124565
    x53        obj        4.7095007785880503
    x53        c5         1.1921146856107052
    x53        c14         0.35701162928156127
    x53        c15         1.3156002339160537
    x53        c25         0.51921305407581575
    x53        c27         1.2337023676205645
    x53        c41         0.93221983463642788
    x53        c47         1.1241290605673477
    x54        obj        7.518046419005433
    x54        c16         1.9935774528969583
    x54        c20         0.3554987682499825
    x54        c23         0.49700039648770511
    x54        c32         1.6965543544020485
    x54        c34         0.27917343623992097
    x54        c37         1.9655289756209142
    x54        c45         1.0678074534942867
    x55        obj        5.3470880573849513
    x55        c0         1.3881447135469578
    x55        c30         0.62080760937568924
    x55        c42         0.48503236466724831
    x55        c44         1.372253428662195
    x56        obj        2.7182517009926483
    x56        c5         1.1854187910776552
    x56        c12         1.7855532132345577
    x56        c18         1.3705140698011211
    x56        c27         0.51215963571548584
    x56        c29         1.6831748403198294
    x56        c37         0.9213097534765653
    x56        c41         1.0049287503630839
    x56        c43         1.6989261095330339
    x57        obj        1.7303373102763286
    x57        c0         1.8179075604110808
    x57        c3         0.33504873091778903
    x57        c4         0.72123260109504983
    x57        c7         1.569980006973196
    x57        c14         0.75652685624510929
    x57        c19         1.5416476109318056
    x57        c36         0.53985585813698633
    x57        c47         1.57780379240043
    x58        obj        1.7820542693884072
    x58        c5         0.69887993771705115
    x58        c10         1.4379570266569763
    x58        c29         1.2777212173636046
    x58        c45         1.4048254378590734
    x59        obj        5.5910239876585912
    x59        c22         0.55120731637739062
    x59        c29         1.6782955529841908
    x59        c31         0.99132047339397455
    x60        obj        1.2463556221862278
    x60        c4         1.2466261748449217
    x60        c17         1.223887839228228
    x60        c42         0.73587033231213672
    x61        obj        8.7192128858017952
    x61        c5         1.7422546450976455
    x61        c35         0.41094361321842354
    x61        c44         0.38277244363441865
    x62        obj        9.8308483814973275
    x62        c4         0.86530318311838617
    x62        c29         1.0193233480299535
    x63        obj        2.2713843240101448
    x63        c13         1.7090707575070647
    x63        c18         1.2409318113484691
    x63        c25         1.7390156724397126
    x63        c33         1.5972348594587134
    x63        c36         0.13440498313515176
    x63        c45         1.6111375573470716
    x63        c46         1.7257543034758325
    x63        c48         1.1089027726636096
    x64        obj        5.2394352263438622
    x64        c4         0.58772770622056636
    x64        c8         0.56113110119314946
    x64        c9         1.9856893609118877
    x64        c19         0.24202676806549778
    x64        c28         0.69679873634039857
    x64        c37         1.3357544062076483
    x65        obj        3.3039563239663932
    x65        c2         0.62815828689633024
    x65        c7         1.2393641496871211
    x65        c37         1.7079776444014385
    x66        obj        9.5804212221494787
    x66        c11         1.1537428220530008
    x66        c27         1.060959865890126
    x66        c31         1.703921280672855
    x66        c35         1.7136290017056184
    x67        obj        2.3724519684971348
    x67        c10         1.9774519292981423
    x67        c38         1.3419296617311207
    x67        c39         1.9940499757845387
    x67        c47         0.78047714382150801
    x68        obj        8.3409621553258173
    x68        c4         0.3700075281087597
    x68        c8         0.40952000192867211
    x68        c11         1.3464734252965447
    x68        c20         0.87216509683274546
    x68        c38         0.27532326760130299
    x68        c43         0.95835901902300624
    x68        c49         1.2300078523351889
    x69        obj        1.2811979290683086
    x69        c38         0.96399736207969311
    x69        c40         1.7170154919278207
    x69        c41         1.8424470761220908
    x70        obj        6.2138335191734466
    x70        c4         1.3764178346793394
    x70        c41         0.12347640735101044
    x70        c48         1.2763807588227567
    x71        obj        3.0747168197065493
    x71        c2         1.6977260001878769
    x71        c8         0.11702629520297134
    x71        c14         1.1202433664971141
    x71        c16         0.62031014025372999
    x71        c20         1.4829949853028681
    x71        c26         1.1314439513321559
    x71        c44         1.5312886855752359
    x72        obj        7.5685885774381569
    x72        c37         1.6294889528957044
    x73        obj        2.0341830044486504
    x73        c42         0.15160377012931792
    x73        c44         1.9171745836380847
    x74        obj        1.5272730178954874
    x74        c1         1.8662918696407107
    x74        c4         1.3993484101174178
    x74        c9         0.19564332140026583
    x74        c23         0.52015523275586695
    x74        c24         0.91460029303976709
    x74        c27         1.5737482587528038
    x74        c32         0.43643287652154106
    x74        c42         1.0783233881403871
    x75        obj        1.1451590152682907
    x75        c1         1.3191038288417152
    x75        c13         1.5546109670318589
    x75        c42         0.54680812585114236
    x75        c48         0.92735718436399606
    x76        obj        9.6198056697092529
    x76        c11         1.6356772120684659
    x76        c26         0.21401161886285944
    x76        c30         1.1821957598465418
    x76        c35         0.20285186687691309
    x76        c36         1.5395321426951751
    x77        obj        7.7875464884374841
    x77        c1         0.34557997586274336
    x77        c3         1.0728905972047096
    x77        c6         1.9263212666843459
    x77        c7         0.35400297441944506
    x77        c17         1.3704711381242027
    x77        c29         1.5253060743219662
    x77        c30         0.24320419985218558
    x77        c32         0.88897763945000718
    x78        obj        7.9103606541787279
    x78        c7         0.64345675660098189
    x78        c42         1.4603309220772762
    x79        obj        9.1075225891201832
    x79        c1         0.97052357912815623
    x79        c16         1.5840869659550161
    x79        c18         0.51329985129534039
    x79        c24         0.72685643397131983
    x79        c33         1.1058092809771518
    x79        c46         1.6628156089968724
    x80        obj        5.4721197789478806
    x80        c3         1.5687070152357809
    x80        c24         0.55680394471008576
    x80        c40         0.23759238992839557
    x80        c45         0.28411200273298975
    x81        obj        9.24278163008821
    x81        c15         0.18073374252319496
    x81        c32         0.6190462809632864
    x82        obj        6.5495988499347488
    x82        c6         0.34221961656571753
    x82        c9         0.60693988476101424
    x82        c21         0.12418811619257264
    x82        c23         0.42087797808807015
    x82        c26         1.7609793533097455
    x82        c27         0.22183735186340289
    x82        c32         0.68318408488862503
    x82        c34         1.6260383926088404
    x82        c36         0.40440466780733941
    x83        obj        6.332744112567168
    x83        c9         1.3657157534844218
    x83        c10         0.47350116115237595
    x83        c40         1.0975542989390901
    x83        c41         0.92376281337377508
    x83        c45         1.2962087356309431
    x83        c46         1.4246228083634147
    x84        obj        2.5564838619120631
    x84        c20         1.3046342273006035
    x84        c22         0.82518058754417623
    x84        c25         0.94696888788731426
    x84        c45         1.898618368137915
    x85        obj        6.9787879440259832
    x85        c7         1.0005170253742337
    x85        c35         1.3038554139364962
    x86        obj        6.4587108673120106
    x86        c25         1.228082079824776
    x86        c26         1.5137234349157285
    x86        c28         0.64341411060515286
    x86        c43         1.084843403817572
    x86        c49         0.58920961201880473
    x87        obj        8.3691023106303213
    x87        c8         0.27036919204822418
    x87        c26         1.5244978767082844
    x87        c33         1.1997573684419249
    x87        c38         1.5798314876296198
    x88        obj        5.7253807547613453
    x88        c8         1.1342244257341945
    x88        c17         0.18327391925123399
    x88        c18         1.0491690729247884
    x88        c40         1.8681811426482209
    x89        obj        3.2730143167448733
    x89        c6         0.84917339470901121
    x89        c8         1.9197590541600058
    x89        c36         1.1395262931216406
    x89        c44         0.23023800970128958
    x89        c49         0.88666685192708028
    x90        obj        8.9654493159274793
    x90        c13         1.1732226063294486
    x90        c15         1.4041081435340301
    x90        c39         1.7283502968656326
    x90        c46         1.7165409614917302
    x91        obj        5.0380950520616317
    x91        c7         1.2574460471525251
    x91        c11         1.9507460051676597
    x91        c17         1.4081038074923247
    x91        c22         0.85875049844232298
    x91        c26         0.25426929801254061
    x91        c37         0.46670898181803844
    x91        c41         1.1831068889030056
    x92        obj        9.7997693125067649
    x92        c11         0.19874196443120018
    x92        c14         0.14001699448135946
    x92        c17         1.2355119172864175
    x92        c20         0.32292001732205611
    x92        c22         0.29579956438706967
    x93        obj        4.0936483443629408
    x93        c3         0.60751863728070632
    x93        c17         0.60183314191669779
    x93        c34         0.58116452527981877
    x93        c41         1.2704233226516202
    x93        c49         0.39338307850114929
    x94        obj        1.8746707200721147
    x94        c6         0.21786600227950531
    x94        c17         0.44395655392556588
    x94        c20         1.7113092561463155
    x94        c42         0.45359915990615873
    x94        c48         0.42027159048568796
    x95        obj        8.1266950006982661
    x95        c10         0.28368417332481266
    x95        c21         1.524308174850536
    x95        c24         1.0269348672993097
    x95        c25         0.11099670881407536
    x95        c34         0.73738906474651977
    x95        c39         1.0735354813994251
    x95        c44         1.9933084797124492
    x96        obj        6.2050052425135869
    x96        c2         1.1212865562053758
    x96        c6         1.3530910939052379
    x96        c8         1.7683302442724047
    x96        c23         0.4568660032370544
    x96        c39         0.43531119239527383
    x96        c46         1.9286477675402307
    x97        obj        8.1873851711377839
    x97        c13         1.1307050989287428
    x97        c14         1.7123552786949228
    x97        c18         0.79675707835943665
    x97        c21         0.29799322400528905
    x97        c25         0.50081599464033566
    x97        c27         1.2770906511931055
    x97        c34         0.72612563442443956
    x97        c40         1.5256835471238974
    x97        c43         0.30920791348165932
    x98        obj        7.1445598147525349
    x98        c3         0.42583196111675803
    x98        c15         1.6856898766630433
    x98        c19         1.004788677463804
    x98        c45         0.81339450639224786
    x99        obj        7.9386169243781719
    x99        c4         1.6018417708587696
    x99        c10         0.40664685766938591
    x99        c31         0.32663773301582238
RHS
    rhs       c0         5.070868528293115
    rhs       c1         4.2835515333569409
    rhs       c2         4.2824015900704797
    rhs       c3         3.9553367763995477
    rhs       c4         3.5099744687950585
    rhs       c5         4.3089864997903398
    rhs       c6         3.3621239653728519
    rhs       c7         5.1912012993933381
    rhs       c8         3.9767261094430291
    rhs       c9         4.8829615214594542
    rhs       c10         3.3063471067551653
    rhs       c11         3.6137888072532336
    rhs       c12         3.9366273979137789
    rhs       c13         5.0134929429206077
    rhs       c14         3.982691943872275
    rhs       c15         4.2063030011241809
    rhs       c16         4.937729115758156
    rhs       c17         3.5068575608177674
    rhs       c18         5.4678614864240354
    rhs       c19         3.8208910907034026
    rhs       c20         4.0111285608345399
    rhs       c21         4.535761666863765
    rhs       c22         2.6468802336079893
    rhs       c23         2.6502816523079096
    rhs       c24         3.1759874154781391
    rhs       c25         4.0892473626519372
    rhs       c26         4.6023254803030538
    rhs       c27         3.6784749942231296
    rhs       c28         3.1714892392814704
    rhs       c29         5.0035969439804484
    rhs       c30         3.0441572313189678
    rhs       c31         3.3310415107503895
    rhs       c32         3.6135780092611132
    rhs       c33         2.5584126691131042
    rhs       c34         2.6244709160994222
    rhs       c35         4.0872060935509618
    rhs       c36         3.1572202780501644
    rhs       c37         4.0701307783004754
    rhs       c38         2.6181200665082049
    rhs       c39         4.4954207336079497
    rhs       c40         3.8133680022446286
    rhs       c41         4.1693764586681423
    rhs       c42         3.2230625061450242
    rhs       c43         4.2465436478250211
    rhs       c44         4.5020649927950291
    rhs       c45         4.9710777474820089
    rhs       c46         5.7568610548191153
    rhs       c47         4.7218928449950832
    rhs       c48         3.3156723519534674
    rhs       c49         3.0634299439838149
BOUNDS
 LO bnd       x0         0
 UP bnd       x0         1
 LO bnd       x1         0
 UP bnd       x1         1
 LO bnd       x2         0
 UP bnd       x2         1
 LO bnd       x3         0
 UP bnd       x3         1
 LO bnd       x4         0
 UP bnd       x4         1
 LO bnd       x5         0
 UP bnd       x5         1
 LO bnd       x6         0
 UP bnd       x6         1
 LO bnd       x7         0
 UP bnd       x7         1
 LO bnd       x8         0
 UP bnd       x8         1
 LO bnd       x9         0
 UP bnd       x9         1
 LO bnd       x10         0
 UP bnd       x10         1
 LO bnd       x11         0
 UP bnd       x11         1
 LO bnd       x12         0
 UP bnd       x12         1
 LO bnd       x13         0
 UP bnd       x13         1
 LO bnd       x14         0
 UP bnd       x14         1
 LO bnd       x15         0
 UP bnd       x15         1
 LO bnd       x16         0
 UP bnd       x16         1
 LO bnd       x17         0
 UP bnd       x17         1
 LO bnd       x18         0
 UP bnd       x18         1
 LO bnd       x19         0
 UP bnd       x19         1
 LO bnd       x20         0
 UP bnd       x20         1
 LO bnd       x21         0
 UP bnd       x21         1
 LO bnd       x22         0
 UP bnd       x22         1
 LO bnd       x23         0
 UP bnd       x23         1
 LO bnd       x24         0
 UP bnd       x24         1
 LO bnd       x25         0
 UP bnd       x25         1
 LO bnd       x26         0
 UP bnd       x26         1
 LO bnd       x27         0
 UP bnd       x27         1
 LO bnd       x28         0
 UP bnd       x28         1
 LO bnd       x29         0
 UP bnd       x29         1
 LO bnd       x30         0
 UP bnd       x30         1
 LO bnd       x31         0
 UP bnd       x31         1
 LO bnd       x32         0
 UP bnd       x32         1
 LO bnd       x33         0
 UP bnd       x33         1
 LO bnd       x34         0
 UP bnd       x34         1
 LO bnd       x35         0
 UP bnd       x35         1
 LO bnd       x36         0
 UP bnd       x36         1
 LO bnd       x37         0
 UP bnd       x37         1
 LO bnd       x38         0
 UP bnd       x38         1
 LO bnd       x39         0
 UP bnd       x39         1
 LO bnd       x40         0
 UP bnd       x40         1
 LO bnd       x41         0
 UP bnd       x41         1
 LO bnd       x42         0
 UP bnd       x42         1
 LO bnd       x43         0
 UP bnd       x43         1
 LO bnd       x44         0
 UP bnd       x44         1
 LO bnd       x45         0
 UP bnd       x45         1
 LO bnd       x46         0
 UP bnd       x46         1
 LO bnd       x47         0
 UP bnd       x47         1
 LO bnd       x48         0
 UP bnd       x48         1
 LO bnd       x49         0
 UP bnd       x49         1
 LO bnd       x50         0
 UP bnd       x50         1
 LO bnd       x51         0
 UP bnd       x51         1
 LO bnd       x52         0
 UP bnd       x52         1
 LO bnd       x53         0
 UP bnd       x53         1
 LO bnd       x54         0
 UP bnd       x54         1
 LO bnd       x55         0
 UP bnd       x55         1
 LO bnd       x56         0
 UP bnd       x56         1
 LO bnd       x57         0
 UP bnd       x57         1
 LO bnd       x58         0
 UP bnd       x58         1
 LO bnd       x59         0
 UP bnd       x59         1
 LO bnd       x60         0
 UP bnd       x60         1
 LO bnd       x61         0
 UP bnd       x61         1
 LO bnd       x62         0
 UP bnd       x62         1
 LO bnd       x63         0
 UP bnd       x63         1
 LO bnd       x64         0
 UP bnd       x64         1
 LO bnd       x65         0
 UP bnd       x65         1
 LO bnd       x66         0
 UP bnd       x66         1
 LO bnd       x67         0
 UP bnd       x67         1
 LO bnd       x68         0
 UP bnd       x68         1
 LO bnd       x69         0
 UP bnd       x69         1
 LO bnd       x70         0
 UP bnd       x70         1
 LO bnd       x71         0
 UP bnd       x71         1
 LO bnd       x72         0
 UP bnd       x72         1
 LO bnd       x73         0
 UP bnd       x73         1
 LO bnd       x74         0
 UP bnd       x74         1
 LO bnd       x75         0
 UP bnd       x75         1
 LO bnd       x76         0
 UP bnd       x76         1
 LO bnd       x77         0
 UP bnd       x77         1
 LO bnd       x78         0
 UP bnd       x78         1
 LO bnd       x79         0
 UP bnd       x79         1
 LO bnd       x80         0
 UP bnd       x80         1
 LO bnd       x81         0
 UP bnd       x81         1
 LO bnd       x82         0
 UP bnd       x82         1
 LO bnd       x83         0
 UP bnd       x83         1
 LO bnd       x84         0
 UP bnd       x84         1
 LO bnd       x85         0
 UP bnd       x85         1
 LO bnd       x86         0
 UP bnd       x86         1
 LO bnd       x87         0
 UP bnd       x87         1
 LO bnd       x88         0
 UP bnd       x88         1
 LO bnd       x89         0
 UP bnd       x89         1
 LO bnd       x90         0
 UP bnd       x90         1
 LO bnd       x91         0
 UP bnd       x91         1
 LO bnd       x92         0
 UP bnd       x92         1
 LO bnd       x93         0
 UP bnd       x93         1
 LO bnd       x94         0
 UP bnd       x94         1
 LO bnd       x95         0
 UP bnd       x95         1
 LO bnd       x96         0
 UP bnd       x96         1
 LO bnd       x97         0
 UP bnd       x97         1
 LO bnd       x98         0
 UP bnd       x98         1
 LO bnd       x99         0
 UP bnd       x99         1
ENDATA
