NAME lp_200x100
ROWS
 N obj
 G c0
 G c1
 G c2
 G c3
 G c4
 G c5
 G c6
 G c7
 G c8
 G c9
 G c10
 G c11
 G c12
 G c13
 G c14
 G c15
 G c16
 G c17
 G c18
 G c19
 G c20
 G c21
 G c22
 G c23
 G c24
 G c25
 G c26
 G c27
 G c28
 G c29
 G c30
 G c31
 G c32
 G c33
 G c34
 G c35
 G c36
 G c37
 G c38
 G c39
 G c40
 G c41
 G c42
 G c43
 G c44
 G c45
 G c46
 G c47
 G c48
 G c49
 G c50
 G c51
 G c52
 G c53
 G c54
 G c55
 G c56
 G c57
 G c58
 G c59
 G c60
 G c61
 G c62
 G c63
 G c64
 G c65
 G c66
 G c67
 G c68
 G c69
 G c70
 G c71
 G c72
 G c73
 G c74
 G c75
 G c76
 G c77
 G c78
 G c79
 G c80
 G c81
 G c82
 G c83
 G c84
 G c85
 G c86
 G c87
 G c88
 G c89
 G c90
 G c91
 G c92
 G c93
 G c94
 G c95
 G c96
 G c97
 G c98
 G c99
COLUMNS
    x0        obj        2.8963353045761586
    x0        c30         0.19029798845247439
    x0        c42         1.426033924819889
    x0        c43         1.0798460466496456
    x0        c56         1.200532498136452
    x0        c58         1.5284874438381033
    x0        c69         0.97748226667247839
    x0        c72         0.74429204063397181
    x1        obj        5.5475370723690869
    x1        c2         1.1101590931956062
    x1        c14         0.95889238354603379
    x1        c16         1.9516381379008791
    x1        c43         1.906798837641505
    x1        c52         1.6628515831464941
    x1        c62         1.8227759695618317
    x1        c66         1.8321421576483352
    x1        c76         1.1987141980321867
    x1        c93         0.34352338447820563
    x1        c95         1.8962864407272264
    x2        obj        4.4425412965623243
    x2        c13         0.47542709860838372
    x2        c41         0.15062636183378592
    x2        c50         1.4764090755908086
    x2        c69         0.47580543363219308
    x2        c76         0.3645742889394421
    x3        obj        7.6086850611415109
    x3        c3         1.3095922363258394
    x3        c4         1.0233412274943561
    x3        c7         1.3475732735562203
    x3        c8         0.68342208286920281
    x3        c22         0.87735310638657882
    x3        c27         1.9137410319553809
    x3        c32         0.98404689184655936
    x3        c40         1.8381256186153845
    x3        c50         1.9937868030958903
    x3        c80         1.6941128169441166
    x3        c83         1.1357721007036714
    x3        c86         1.3632472206578572
    x3        c92         0.76461853482080455
    x4        obj        3.2483438001197502
    x4        c1         0.70521531030687712
    x4        c11         1.1206115454125098
    x4        c14         0.13542021187770395
    x4        c33         0.98864656553607377
    x4        c54         1.9967436964466505
    x4        c58         0.79279527094339752
    x4        c63         0.79355683604518468
    x4        c65         1.4981135235885561
    x4        c79         1.4175930416493701
    x4        c88         1.3662441089468536
    x4        c90         0.79002946413000463
    x5        obj        6.4365042731159416
    x5        c0         0.46878011056257463
    x5        c14         1.9117066514213295
    x5        c22         1.2158639921478926
    x5        c37         1.2210130100799348
    x5        c45         0.4396002370179799
    x5        c52         0.46066098596511318
    x5        c59         0.82456247192684085
    x5        c79         1.2466166430771293
    x5        c89         1.3058343787246478
    x5        c96         1.9164201609061755
    x6        obj        2.0425021496661793
    x6        c4         1.1676695918256381
    x6        c7         1.1376755463919941
    x6        c28         1.0820112747777502
    x6        c34         1.5407810602604113
    x6        c40         1.7567217746577064
    x6        c54         1.7263743083385585
    x6        c84         1.5146449694493798
    x6        c88         0.90388923518081976
    x6        c92         0.32672050236453032
    x7        obj        7.8430333077258041
    x7        c10         0.7037655802672349
    x7        c16         0.88854648415605242
    x7        c18         1.7667257123450242
    x7        c48         1.7214127025854651
    x7        c57         1.1495171806431497
    x7        c67         0.72057627969424709
    x7        c70         0.31072981551517515
    x7        c76         0.38441485098358763
    x7        c84         1.4792598215477155
    x7        c90         0.34965029076848197
    x8        obj        4.918314920269383
    x8        c15         0.19875113622226778
    x8        c19         0.92596174669409648
    x8        c24         0.25882101332848706
    x8        c27         1.3907933864926609
    x8        c29         1.1819975487842562
    x8        c32         0.14095015588860174
    x8        c62         0.90263360592917063
    x8        c70         0.63735363565151604
    x8        c75         0.30229233532729116
    x8        c79         1.5083860692728368
    x8        c88         0.5331413490114606
    x8        c90         0.198209776126894
    x8        c98         1.6849812752947031
    x9        obj        2.5831142451124469
    x9        c4         0.73417786963763976
    x9        c5         1.5945873512292317
    x9        c14         0.14584137418978935
    x9        c17         0.27931413657888737
    x9        c41         1.5913254023039793
    x9        c43         1.9595516490324951
    x9        c62         1.3608269787851155
    x9        c79         1.0184492528928968
    x9        c97         0.38431814850085333
    x10        obj        5.2685198998919951
    x10        c6         1.0712975063140762
    x10        c9         0.68088649723928785
    x10        c11         1.757113210029251
    x10        c24         1.082193116781875
    x10        c55         1.4712828678201502
    x11        obj        2.8676470792880369
    x11        c17         1.0783841567853694
    x11        c27         0.83323446906227427
    x11        c28         0.90735106976485602
    x11        c37         0.43569376018549422
    x11        c39         0.4958579701441227
    x11        c43         1.6995727942325181
    x11        c64         1.7961872557215564
    x11        c67         0.57614162107899358
    x11        c82         1.2228586725285153
    x11        c87         1.2362990199747497
    x11        c88         1.2386775042284768
    x12        obj        3.0831799093112688
    x12        c4         1.1934919870808431
    x12        c31         1.001418772130789
    x12        c35         0.9254523967498659
    x12        c36         0.78940437217022796
    x12        c48         0.77323138878121556
    x12        c60         1.0238248271503838
    x12        c73         1.9110385457071799
    x12        c75         1.968901955945201
    x12        c86         0.48688903080383616
    x12        c94         1.3691857009262653
    x13        obj        4.8784912968936265
    x13        c4         0.61502222764964287
    x13        c11         1.7828647466851923
    x13        c21         1.301266039460153
    x13        c26         1.5269407789750482
    x13        c49         1.407487021725828
    x13        c69         1.9135899352210917
    x13        c84         0.11524105861339201
    x13        c96         0.49327469763559784
    x13        c99         0.99092309337001827
    x14        obj        1.2281025326028399
    x14        c25         0.86865261792778814
    x14        c27         1.6828020798323799
    x14        c40         0.40688317658510453
    x14        c45         0.81232218946124812
    x14        c68         1.2807823930509519
    x14        c78         0.8343618256345664
    x14        c93         0.13621525676301996
    x15        obj        3.7406307430333405
    x15        c15         1.0365454212047387
    x15        c18         1.1495520591863277
    x15        c19         1.5143679893214506
    x15        c22         0.21243727687752473
    x15        c25         0.71221809710590067
    x15        c30         1.4175415330087395
    x15        c32         1.8273996391394307
    x15        c43         1.5714913302738189
    x15        c49         0.77163872406020917
    x15        c58         0.70233515665831936
    x15        c60         1.2216737359722698
    x15        c72         0.79045812388737202
    x15        c95         1.7135247419070223
    x16        obj        1.8245700951885753
    x16        c21         1.5009271758426157
    x16        c49         1.4584102936820162
    x17        obj        7.1899778155001286
    x17        c12         1.8327764441050003
    x17        c20         0.41390455875297338
    x17        c37         1.4763158657228612
    x17        c44         1.4349553889460078
    x17        c61         1.8464792683854152
    x17        c66         0.28486527169509568
    x17        c97         1.7186312161252955
    x18        obj        8.7551943901823268
    x18        c5         1.3369550674297057
    x18        c6         1.5836873991391647
    x18        c12         1.4403242860642205
    x18        c21         1.8097840928269282
    x18        c25         1.561012126326133
    x18        c33         1.4872857092560476
    x18        c38         1.7843224286998942
    x18        c39         0.70987655632464552
    x18        c52         1.6182077305334499
    x18        c57         0.89623661755729411
    x18        c70         1.8620751099405934
    x18        c88         1.9372668108499296
    x19        obj        7.0335524087587151
    x19        c32         1.5261990068871081
    x19        c61         0.38301288248275545
    x19        c75         1.8654363861654244
    x19        c77         1.1282525732382653
    x19        c86         0.93960772630036626
    x20        obj        4.0713096824723056
    x20        c27         1.6285766027876223
    x20        c34         1.6841739267264759
    x20        c40         0.50771575204177444
    x20        c41         1.8245287512985382
    x20        c48         1.8840606986920041
    x20        c58         1.7497319913505469
    x20        c59         0.41337951667174333
    x20        c72         0.34413480420991882
    x20        c79         0.39459634643640029
    x20        c96         1.3234190554749363
    x21        obj        8.555450060918524
    x21        c2         0.86363859944539334
    x21        c6         1.8065580458634871
    x21        c27         1.6292130344610056
    x21        c39         1.1135065457462336
    x21        c45         0.28210214995856464
    x21        c50         1.4647184859084303
    x21        c54         0.5172962096434488
    x21        c66         0.39452492534564398
    x21        c68         0.17117996305171296
    x22        obj        9.4648277228194271
    x22        c4         0.57472704240002137
    x22        c13         0.88822707118177613
    x22        c24         1.0353470419377837
    x22        c31         0.94807732940145251
    x22        c51         0.50424481198684534
    x22        c64         1.9185514080174184
    x22        c77         0.12710773729323219
    x22        c92         1.44957469282248
    x23        obj        1.1481151430509753
    x23        c9         0.90997763074329852
    x23        c25         0.7250217646847511
    x23        c31         0.35674672805117857
    x23        c57         0.29785530390713078
    x23        c67         1.5231463104618022
    x23        c83         1.5825096817414186
    x23        c91         1.8190275253196178
    x23        c93         0.67095374309877842
    x24        obj        6.6035611692553982
    x24        c10         0.46763364735515589
    x24        c14         1.3588347878392435
    x24        c46         1.9532674783767852
    x24        c67         1.307587909053022
    x24        c82         1.8087171369467692
    x24        c92         0.61653714967570006
    x25        obj        3.9449780560639045
    x25        c15         1.3264406272292728
    x25        c38         0.97609949882345637
    x25        c45         0.25857297389505834
    x25        c50         0.13094097838819607
    x25        c80         0.79947748135757524
    x26        obj        8.6397541217765763
    x26        c3         1.1846439914602502
    x26        c4         1.5947303015512104
    x26        c24         1.8224726842401506
    x26        c39         0.48587506771824163
    x26        c52         0.44894450596726387
    x26        c58         1.7680215235603169
    x26        c64         1.3378550303430774
    x26        c66         0.98028378197522525
    x26        c68         1.2635938618639695
    x26        c75         1.0742833309167976
    x26        c80         1.3798582168452769
    x26        c81         1.6160088924512936
    x26        c90         1.5037117627795289
    x26        c95         1.1135752513917756
    x27        obj        4.7153618886177258
    x27        c5         1.9390131044971715
    x27        c50         1.3572885745297936
    x27        c60         1.1094311261273984
    x27        c74         0.33589970948403503
    x27        c88         1.4059182535322674
    x27        c89         1.3137809376347382
    x27        c92         0.55686397336502824
    x27        c95         1.7923115855139939
    x28        obj        3.6617434952598753
    x28        c4         0.32640894436290402
    x28        c9         0.69174789731509789
    x28        c17         0.62390732193684761
    x28        c18         1.8832186528382917
    x28        c33         0.40898470143210397
    x28        c36         1.6748999494039483
    x28        c40         0.12153762864533564
    x28        c47         1.0255407637839498
    x28        c49         0.9264864136945723
    x28        c60         0.17441425365785218
    x28        c63         0.90383019829194478
    x28        c80         0.23458442743036251
    x28        c85         0.7841318693166458
    x28        c99         1.9982396502636397
    x29        obj        1.4905888640211526
    x29        c1         1.9718788167711139
    x29        c11         0.9240885756949303
    x29        c20         1.0549571298726241
    x29        c21         1.2910609030056117
    x29        c26         1.0344154857887713
    x29        c45         0.12342240998850081
    x29        c47         0.56286758403111847
    x29        c56         0.77547501772703087
    x29        c70         1.3684227652102079
    x29        c89         1.4592721214992952
    x29        c94         1.4634968232166385
    x30        obj        7.7391129728682877
    x30        c11         0.17334184851508261
    x30        c14         0.81315801983067726
    x30        c34         1.9990686884933728
    x30        c36         1.6496387580554084
    x30        c65         1.7242608850639538
    x30        c73         0.28553112571535844
    x30        c79         1.1287723346735279
    x30        c94         0.3291230076970863
    x30        c96         1.6168382174706863
    x31        obj        6.6646536413056738
    x31        c5         0.7591847901536346
    x31        c16         1.6806714900920869
    x31        c29         1.3607137798607036
    x31        c37         0.42602744096826128
    x31        c47         0.26075662254516063
    x31        c49         1.9251777561344152
    x31        c65         0.63529966583806252
    x31        c78         1.7634592505763442
    x31        c90         1.2315558346551865
    x32        obj        6.91968439895515
    x32        c0         1.3689668712863099
    x32        c19         0.51508786817084251
    x32        c22         0.62029174531117437
    x32        c29         1.8173222934813014
    x32        c37         1.4022350158429144
    x32        c41         1.6530335485641452
    x32        c46         0.1876513704609783
    x32        c54         1.7828714369943424
    x32        c78         0.84696761133192378
    x32        c91         1.1560575739048453
    x32        c93         0.81033783533297243
    x33        obj        2.5389483636365102
    x33        c0         1.560919459080182
    x33        c21         0.13600597115144142
    x33        c36         0.15845664628834663
    x33        c41         1.8836235768416751
    x33        c48         1.6710811363092712
    x33        c49         1.366195636817332
    x33        c56         1.2766493460357473
    x33        c62         1.9759670594437782
    x33        c63         0.65733490421011254
    x33        c75         1.301233909795886
    x34        obj        1.6067103283593496
    x34        c13         0.50185477847267246
    x34        c18         0.69428564095590617
    x34        c25         1.6007730606476349
    x34        c45         0.52065839385602242
    x34        c48         1.6789578404764331
    x34        c49         0.51029708694159515
    x34        c54         1.4410136383844006
    x34        c59         0.87283183480348081
    x34        c70         0.70011593057415911
    x34        c71         0.79513256565852297
    x34        c77         0.50609123662414746
    x34        c94         1.2297497501205537
    x35        obj        6.932824029903478
    x35        c3         0.85582331733543104
    x35        c12         1.9130282141496127
    x35        c19         1.0056323392409907
    x35        c22         0.1843221140421426
    x35        c23         0.36992572808358637
    x35        c40         1.5639442650356497
    x35        c41         0.40971126575673134
    x35        c46         0.20015003330725223
    x35        c49         0.58889960803424557
    x35        c52         0.59673842429295332
    x35        c54         0.96367807743340117
    x35        c91         0.79710503257214793
    x36        obj        6.0371649164082557
    x36        c12         1.0355048614854074
    x36        c13         1.6702094772621914
    x36        c34         0.54317116851984892
    x36        c42         0.44857857230683906
    x36        c53         0.72133651086815798
    x36        c55         1.0040066955200238
    x36        c69         1.1693935789515699
    x36        c77         0.96297096877120314
    x36        c78         0.42122766777929521
    x36        c95         1.0000479468519385
    x37        obj        8.0483586766004844
    x37        c0         0.50890195530590199
    x37        c13         0.48972899172961737
    x37        c20         0.82290545735205367
    x37        c41         1.234750652365133
    x37        c59         0.32120528410262406
    x37        c77         0.3724398972129016
    x37        c88         0.33950490973816683
    x37        c93         0.39735053256384312
    x37        c97         1.226231450069206
    x38        obj        4.0302545085997492
    x38        c11         0.37284288661852771
    x38        c33         0.3112773931845858
    x38        c35         1.6386907962015675
    x38        c42         0.96676739548500956
    x38        c43         0.40651329843916828
    x38        c87         1.2952914964620206
    x38        c97         0.87787504656929349
    x39        obj        4.7252830368672907
    x39        c4         1.2464307388661282
    x39        c22         0.59275627805232556
    x39        c27         1.6171890074469899
    x39        c30         0.2593935594350662
    x39        c39         1.8040472178651727
    x39        c49         0.84743987340681104
    x39        c59         1.5110747125768405
    x39        c66         1.2560767780375515
    x39        c71         1.4236897351857245
    x39        c90         1.5742012392298788
    x40        obj        3.0695101509448373
    x40        c8         1.7982163937559927
    x40        c10         1.8241948857130506
    x40        c35         1.5792796099680226
    x40        c47         0.94704971071744359
    x40        c49         1.1801160135055613
    x40        c55         1.5401301368371754
    x40        c59         0.29323159387053988
    x40        c80         0.25332554877282182
    x40        c93         1.785231653003533
    x40        c99         0.43682638914149008
    x41        obj        2.9797416735857682
    x41        c8         1.5690968331637334
    x41        c13         1.0326137121519783
    x41        c20         1.0749882323427538
    x41        c27         1.6793373277709891
    x41        c30         0.92779277533902882
    x41        c33         1.9404245724294209
    x41        c35         1.5289147290526233
    x41        c38         1.7223530957573769
    x41        c48         0.66566312605208755
    x41        c50         1.3806251227332185
    x41        c62         0.19368955860370515
    x41        c78         1.1007517995941454
    x41        c80         0.31021941994278718
    x41        c91         0.80651791875143009
    x41        c92         1.5350049180264411
    x41        c99         1.2586972122017055
    x42        obj        9.0752810601533582
    x42        c0         0.99243388670443033
    x42        c26         1.7470677424670904
    x42        c36         1.9011553360178468
    x42        c37         0.11271755524422611
    x42        c58         1.7966031899050874
    x43        obj        2.1621537335936338
    x43        c19         0.71159783023812373
    x43        c42         0.57387908596926318
    x43        c47         1.8747873600088114
    x43        c50         0.68722357222690666
    x43        c73         0.56709555571032011
    x43        c84         0.69849429699257004
    x43        c87         1.5798814792773614
    x43        c97         0.13304744400318988
    x44        obj        9.1875562074404993
    x44        c7         0.72895695863038756
    x44        c20         0.78436188572597942
    x44        c43         0.82674544730917321
    x44        c46         0.89863098434739674
    x44        c53         1.4269712919219535
    x44        c65         0.40726521165846452
    x44        c74         1.8031738605442118
    x44        c81         0.73200198695909968
    x45        obj        2.1212176531845413
    x45        c5         1.3791215572757045
    x45        c35         1.1760679252210888
    x45        c54         1.3192131781298062
    x45        c61         0.50933831894675108
    x45        c74         0.66340865342243438
    x45        c84         0.84574636836368056
    x46        obj        5.833998271664794
    x46        c13         0.77257455183859514
    x46        c28         1.3798639960560841
    x46        c34         1.2658269217138234
    x46        c38         1.3910590638268157
    x46        c40         1.1456544859761955
    x46        c45         0.23565140905394708
    x46        c46         1.064732584435242
    x46        c48         0.31549771513010461
    x46        c53         0.13906874337397862
    x46        c97         1.0877531208300781
    x47        obj        6.445064308132137
    x47        c7         0.6578483563541514
    x47        c10         0.8839115787405748
    x47        c15         1.4111538516746007
    x47        c22         0.26727245610663258
    x47        c26         0.12128686568323163
    x47        c30         1.6297028705214933
    x47        c46         1.8653468650117206
    x47        c54         0.37005711459985058
    x47        c55         1.0795700688139211
    x47        c71         1.7013512827063695
    x47        c72         1.1454700331398431
    x47        c75         1.4452379915723588
    x47        c86         1.0705975719070375
    x48        obj        5.130232105214084
    x48        c3         1.1605655419782099
    x48        c5         1.8804857859160837
    x48        c23         1.1044156489241228
    x48        c32         1.0214583708019898
    x48        c48         1.0630908278854549
    x48        c64         1.6221749167917003
    x48        c84         1.1039116733614409
    x48        c91         0.57157398260863101
    x49        obj        9.1103426283058617
    x49        c30         1.2006873150186159
    x49        c34         1.6483391251984416
    x49        c44         1.527239250684137
    x49        c56         1.9010243021024646
    x49        c72         1.3798594846433028
    x49        c74         1.4980373505362539
    x50        obj        1.3792015527527735
    x50        c0         1.8410766159346765
    x50        c13         1.3260828752456906
    x50        c62         1.6435709123972226
    x50        c63         1.52551465084439
    x50        c74         1.4197794846360183
    x50        c79         0.66821036995569549
    x50        c90         0.49686016952300993
    x50        c92         0.25393211897128332
    x50        c93         0.7181847122433247
    x50        c95         0.89420160555510575
    x51        obj        7.2508349811830932
    x51        c11         1.1953392873368949
    x51        c16         1.0243756499118597
    x51        c18         1.228724133064981
    x51        c21         0.38940746901671852
    x51        c39         0.22934486324455833
    x51        c46         1.2137705918371331
    x51        c56         0.41983444743101805
    x51        c62         1.6421543642629266
    x51        c64         1.472963202167147
    x51        c85         1.6603883567631135
    x51        c99         1.7102820328235042
    x52        obj        2.2866474743185448
    x52        c53         1.0814570653663427
    x52        c58         0.67688498247356588
    x52        c69         1.7103419196520731
    x52        c74         0.72799554865192029
    x52        c99         1.632752469695282
    x53        obj        8.1626142898510601
    x53        c4         0.95563209619971479
    x53        c33         1.1394728252064554
    x53        c40         0.75601217270473109
    x53        c63         1.0238420742442222
    x53        c83         0.71508304349112728
    x53        c84         0.5207088657137533
    x53        c87         0.21746298037789802
    x53        c89         1.5673962651729152
    x53        c96         0.41124409521358463
    x54        obj        6.8490816725901764
    x54        c3         0.59681131848367541
    x54        c5         1.0899859593978418
    x54        c7         1.7477281529854782
    x54        c10         1.5936567419518706
    x54        c22         0.77924411529817605
    x54        c28         0.29873051399225742
    x54        c34         1.5207504507589595
    x54        c41         1.1456353746413366
    x54        c43         0.13025970168994372
    x54        c51         0.15565523003529752
    x54        c65         1.4502937695140226
    x55        obj        6.0427960275514936
    x55        c14         0.53190204879215108
    x55        c21         1.0150466683968065
    x55        c23         0.74070519877135477
    x55        c33         1.7944594252447261
    x55        c35         0.51943701843698908
    x55        c44         1.3232848737946616
    x55        c76         1.722462733189656
    x55        c78         0.62478753795612574
    x55        c79         1.5187254912837223
    x55        c93         1.5616472023837582
    x55        c96         1.6537428326109755
    x56        obj        4.7890781623456631
    x56        c1         0.21186433953334199
    x56        c3         0.56826572663286079
    x56        c8         0.2662329931156503
    x56        c11         1.9931106353084105
    x56        c13         1.9528025806090876
    x56        c24         1.5107273589407062
    x56        c38         0.24529369341767326
    x56        c55         0.16295329812486081
    x56        c61         1.2685682698244629
    x56        c64         1.5390879157954911
    x56        c74         0.59247332377353545
    x56        c76         0.82132020307627795
    x57        obj        5.2249256608424384
    x57        c4         1.2751500439657939
    x57        c12         1.5093284042079316
    x57        c38         1.5686294229329176
    x57        c49         0.90505434683713049
    x57        c78         1.2358878522126222
    x57        c81         1.4284019433974884
    x57        c82         0.58529279906412079
    x58        obj        3.1201085882584918
    x58        c23         1.1306055546406064
    x58        c28         1.5784409351671438
    x58        c44         1.4948023918714299
    x58        c57         1.8704262351187939
    x58        c58         1.7469725405547201
    x58        c85         1.166497381872782
    x58        c86         0.3809008886729347
    x59        obj        7.1033065093021452
    x59        c2         0.60934944492857257
    x59        c8         1.6704637815349372
    x59        c35         0.5910824127150287
    x59        c82         0.80653009902682571
    x60        obj        5.2901995370587978
    x60        c48         0.51811878722792337
    x60        c72         0.39004199003582407
    x60        c81         0.25107778446978274
    x61        obj        2.5551031377969862
    x61        c0         0.58284868159503522
    x61        c1         1.6168751199993694
    x61        c39         1.513429089354996
    x61        c40         0.64281373654971896
    x61        c52         1.8076214432832722
    x61        c59         1.7029046938425321
    x61        c64         0.90966883504613716
    x61        c66         0.60609619182683605
    x61        c70         1.5343688478799613
    x61        c73         1.2986693771468827
    x61        c77         0.30034922569339051
    x61        c90         1.719342471643921
    x61        c94         0.94885093707742851
    x62        obj        5.763312468589378
    x62        c3         0.84100644500727906
    x62        c4         0.50510739229182888
    x62        c24         0.20462437244109369
    x62        c28         1.8752717467521554
    x62        c31         1.5548411729771903
    x62        c44         1.2701232285498576
    x62        c52         0.33355866670936668
    x62        c57         1.3834499326256882
    x62        c68         0.65003308379606284
    x62        c70         0.89070857680262505
    x62        c73         1.7704787237220949
    x63        obj        7.3996235125089305
    x63        c10         0.59021275264355044
    x63        c22         1.307482351172863
    x63        c43         0.17224260401344399
    x63        c65         1.2409842958818547
    x63        c72         1.7510172803819348
    x63        c76         0.47746035966720846
    x64        obj        1.6996678702081636
    x64        c4         0.35772430799014554
    x64        c7         0.55427395708018612
    x64        c8         1.9667358171925029
    x64        c15         0.48634113134073365
    x64        c40         0.16787789650272211
    x64        c41         0.86713377318925167
    x64        c51         1.8412573845543982
    x64        c60         1.7361568003864505
    x64        c61         0.97722912698827469
    x64        c75         0.47433162829199205
    x64        c76         1.4424835928976565
    x64        c78         1.4688314513476355
    x64        c85         1.3305771129094472
    x64        c90         0.54964076901992631
    x64        c96         1.1703113636615392
    x64        c97         1.1444036106944782
    x65        obj        7.0666631408545433
    x65        c7         0.70219783899866717
    x65        c9         0.8337326268218308
    x65        c27         1.0995276666686327
    x65        c36         0.86963996439753988
    x65        c44         1.2961101103523867
    x65        c51         0.96736254601883365
    x65        c54         1.1597960443266639
    x65        c60         1.9423526453623574
    x65        c66         0.5302774480920468
    x65        c91         0.502861780641777
    x65        c97         0.33158602428010964
    x65        c98         1.9782311656616296
    x66        obj        8.75034601403366
    x66        c23         0.64160867338645722
    x66        c34         0.88084470181053587
    x66        c42         1.1234459900933242
    x66        c68         1.5124857852017897
    x66        c72         0.86543585530867728
    x66        c87         1.3360761877900345
    x67        obj        3.2381382215459023
    x67        c2         1.1343782008336201
    x67        c18         1.9510068948165016
    x67        c61         0.80638273940728311
    x67        c76         0.93966960418803291
    x67        c96         0.48703667859948918
    x67        c99         1.9258644874559256
    x68        obj        7.8172640560969633
    x68        c3         1.7816705638057913
    x68        c5         1.6515896260188634
    x68        c12         0.29534034240000562
    x68        c17         0.83308227209130969
    x68        c20         0.70691497918846335
    x68        c26         1.0288992161227573
    x68        c27         1.4612924333377237
    x68        c40         1.0118072737301564
    x68        c46         1.5540313610863719
    x68        c51         0.87584766635136901
    x68        c81         1.1167897154916915
    x68        c87         0.49727220533685657
    x69        obj        5.0611554248329478
    x69        c15         1.7989769341933766
    x69        c22         1.3114100066949805
    x69        c28         0.67599073508996321
    x69        c43         0.87308480205894246
    x69        c54         1.9914074889842051
    x69        c63         1.7393259915817734
    x69        c72         0.77022593391594507
    x69        c86         0.72232927200329777
    x69        c94         0.35253195096076062
    x69        c96         1.7019695191195374
    x70        obj        2.2875521539344774
    x70        c15         1.26080152664879
    x70        c25         1.4136383169142737
    x70        c35         0.94723350024324859
    x70        c42         0.32704643495654628
    x70        c53         1.4750317161538116
    x70        c87         1.3250997190707876
    x71        obj        1.2925842438823718
    x71        c14         1.8492380748922455
    x71        c21         0.81588982362429707
    x71        c30         0.97873082822303936
    x71        c36         1.3684892088954985
    x71        c68         0.10943986923900992
    x71        c83         1.9890445202922731
    x71        c94         0.2813128139689195
    x71        c96         0.32869127516965546
    x72        obj        3.0211792054661792
    x72        c19         0.31591765025549878
    x72        c21         1.9835175451349267
    x72        c23         0.27904445563540636
    x72        c39         0.49366304202825817
    x72        c42         1.4015201707123544
    x72        c47         1.5846285695541347
    x72        c67         1.5099366320562795
    x72        c82         0.80923946132777691
    x72        c97         1.016233915628739
    x73        obj        8.9080379910518808
    x73        c9         0.71952867310318314
    x73        c17         0.61759808705405594
    x73        c25         1.3852805829209225
    x73        c42         0.96836318539698241
    x73        c48         1.535166531774508
    x73        c65         0.82947957006600448
    x73        c75         0.90265956550841531
    x73        c84         0.91251020372862224
    x74        obj        9.6133917457309952
    x74        c16         1.8022159946116441
    x74        c17         1.0224012976093846
    x74        c26         0.16540711036607575
    x74        c34         0.75539902012755156
    x74        c43         1.9265659639122399
    x74        c44         1.9879719294396931
    x74        c45         1.4800761475043462
    x74        c53         0.91005785354220081
    x74        c79         1.068743724407677
    x74        c98         1.9761711849427588
    x75        obj        5.7403550726893311
    x75        c5         0.94286771715051954
    x75        c11         0.24559636496459444
    x75        c23         0.63067363570254864
    x75        c26         0.1205998831868183
    x75        c29         1.6253361790791598
    x75        c60         1.2365446243439731
    x75        c62         0.38103817856582345
    x75        c65         1.4603780003173248
    x75        c72         1.5774681466375722
    x75        c77         1.7777155723733258
    x75        c98         1.849604633054948
    x76        obj        8.6126570954126613
    x76        c5         1.8488955297451486
    x76        c6         1.1991234962807202
    x76        c14         0.50229603841245973
    x76        c18         0.55167702276008734
    x76        c37         0.82146312954931555
    x76        c43         0.35506522801614859
    x76        c52         1.3820752459880463
    x76        c61         0.51353586486629044
    x76        c64         1.9208384799170242
    x76        c66         1.2918176402683252
    x76        c67         0.30311656922781954
    x76        c74         1.3808973794760027
    x76        c75         0.63081075081071269
    x76        c76         0.66919103068247676
    x76        c80         1.64807473066907
    x76        c84         0.66756762793716706
    x76        c97         1.175475048668194
    x77        obj        9.030506977011477
    x77        c10         1.5219830551715829
    x77        c16         0.53171192530234412
    x77        c25         1.6927849006154487
    x77        c30         0.51446120990642052
    x77        c34         0.31267941309981651
    x77        c45         1.3517874227196622
    x77        c63         0.2876389440839634
    x77        c70         1.5742099923230237
    x77        c71         0.85984947854587901
    x77        c90         1.987716347916417
    x77        c96         1.3381849553642098
    x78        obj        6.0042599943620827
    x78        c12         0.1068360858776906
    x78        c42         1.2243186640439694
    x78        c46         1.6666338633720275
    x78        c53         0.45142239129009099
    x78        c70         0.95770526882856288
    x78        c71         0.45707134578434494
    x78        c97         1.0081450802311118
    x79        obj        8.4045146784543707
    x79        c6         1.551596030750138
    x79        c70         0.10414867847665359
    x79        c72         1.3470844216256808
    x79        c82         0.66049726728785896
    x79        c97         0.27946245089340893
    x80        obj        4.7858766315104972
    x80        c6         0.84254333854515706
    x80        c38         1.0504195682057909
    x80        c43         1.4368138883492294
    x80        c56         1.853604798419082
    x80        c59         0.64594181797637296
    x80        c98         0.86142008859915253
    x81        obj        6.1536306198567843
    x81        c0         0.18457611275735858
    x81        c9         1.0676127219484297
    x81        c17         0.54503137861950335
    x81        c21         0.2613841659342418
    x81        c46         1.0277553884414161
    x81        c49         0.82427976854491558
    x81        c51         0.76019965012741164
    x81        c54         1.7379867800884043
    x81        c61         0.16391240011210473
    x81        c76         0.87252911474552641
    x81        c80         1.2360221355626611
    x81        c86         1.4786854204840061
    x81        c89         0.26522428686270005
    x81        c98         0.77196739971012562
    x82        obj        4.0862633868724805
    x82        c1         0.47683121559889596
    x82        c13         0.78464252021972847
    x82        c21         1.3321494543750338
    x82        c38         0.24028296059020912
    x82        c50         0.590259873306481
    x82        c54         1.7990478568849761
    x82        c59         0.16133863731480336
    x82        c76         1.5039333899744709
    x82        c85         1.5294194830270245
    x82        c93         0.34129124312937076
    x83        obj        6.8477817037980087
    x83        c14         1.9147889536512459
    x83        c23         1.6938604571887015
    x83        c37         0.66693791471914732
    x83        c55         0.24374969690674531
    x83        c79         0.39478114256222541
    x84        obj        5.0534824021118796
    x84        c4         0.67171089412760843
    x84        c7         1.8390392865714118
    x84        c14         1.2923748061528371
    x84        c20         1.0704028729074957
    x84        c28         0.20796418021216984
    x84        c48         1.1099880584522777
    x84        c56         1.2089762229907974
    x84        c59         1.0440143252116012
    x84        c65         1.7985236538418516
    x84        c71         0.68791062590879604
    x84        c74         1.1649363628542195
    x84        c81         1.8737520483027932
    x85        obj        1.4235052446107255
    x85        c2         1.2626909423222203
    x85        c13         1.5173006263582975
    x85        c16         1.383460618815977
    x85        c28         0.56337545221926077
    x85        c32         1.2538245221230613
    x85        c38         0.51275328260961239
    x85        c48         0.72831783479964329
    x85        c66         0.42040430474365786
    x85        c78         0.95600392456328209
    x85        c99         1.1435275999507781
    x86        obj        6.8245436615623163
    x86        c9         1.4088305952324325
    x86        c20         0.13757888104478783
    x86        c25         0.88088717010541517
    x86        c31         1.8459257285214306
    x86        c35         1.3281767472075647
    x86        c38         1.1275849939742992
    x86        c51         1.0890750102902675
    x86        c75         1.7104135879396745
    x86        c83         0.5194464352480157
    x86        c94         1.0350731792893613
    x86        c99         1.0957526754007634
    x87        obj        8.621704859332139
    x87        c2         0.19403435008414888
    x87        c3         1.3819621232305883
    x87        c18         1.8237423134440436
    x87        c44         1.0998401634371096
    x87        c53         1.7598567964946321
    x87        c68         1.6333065648453693
    x87        c73         1.1770817497114825
    x87        c74         0.33238339547069845
    x87        c82         1.4612333643458515
    x87        c88         0.38339311285803268
    x87        c89         0.90025610207852813
    x87        c99         0.46098233826181223
    x88        obj        5.327294448591422
    x88        c4         0.39071679859938258
    x88        c13         1.5519513175082968
    x88        c17         1.4397481666813765
    x88        c18         0.51209164347500535
    x88        c22         1.3943269781058616
    x88        c24         0.13937765454172621
    x88        c34         1.4677945048597829
    x88        c46         0.18762419826342955
    x88        c48         0.18207704335923514
    x88        c92         0.46664674071848522
    x89        obj        7.1248641156285011
    x89        c14         1.7477256226173075
    x89        c22         1.8039808363273306
    x89        c25         0.190521562920409
    x89        c30         0.82892810552979412
    x89        c34         0.60619472755615433
    x89        c43         0.7415003879823473
    x89        c63         1.8220799428658623
    x89        c75         0.78352246921132507
    x89        c93         0.75553041906450857
    x89        c94         1.5269341802428151
    x90        obj        1.174476418676639
    x90        c22         1.2276880879036456
    x90        c36         0.44546692652585196
    x90        c50         0.95097985233942739
    x90        c53         1.0800494115939221
    x90        c62         0.81826249043562627
    x90        c73         1.6388775238717861
    x91        obj        2.9258711951732304
    x91        c8         1.9661356587633518
    x91        c11         1.4896270705196808
    x91        c21         0.57154584607654413
    x91        c26         1.948282997245661
    x91        c30         1.1045068866745991
    x91        c48         1.8380355192302928
    x91        c58         0.36425856837675863
    x91        c69         1.2389125758576518
    x91        c88         1.5108536301552447
    x92        obj        3.3662811028682151
    x92        c1         1.8005502126705863
    x92        c25         0.63342397513193738
    x92        c33         0.78056211495554528
    x92        c35         1.5624486158398656
    x92        c37         0.45416366241540973
    x92        c47         1.6746945269039437
    x92        c56         1.7750407945076814
    x92        c58         0.81735816487683921
    x92        c60         1.4347808583205603
    x92        c73         0.50597653563349543
    x92        c74         0.55429946517734652
    x92        c77         1.5274513820187927
    x92        c80         1.7322051818699593
    x92        c81         1.39413607025951
    x92        c89         1.1766895676248093
    x92        c90         1.0003842627659962
    x93        obj        3.5935474319614715
    x93        c6         0.38458349587693574
    x93        c11         1.2273307951708852
    x93        c13         1.7969902139054703
    x93        c18         1.6519314896506461
    x93        c42         1.4569511831366748
    x93        c51         1.8507503525172628
    x93        c52         1.1423430142012776
    x93        c68         1.0171242851043545
    x93        c83         0.71143193831042151
    x94        obj        4.2198062897519968
    x94        c8         1.4877074039295584
    x94        c24         1.3609153538878755
    x94        c28         0.29331426786619097
    x94        c38         1.7545495473580695
    x94        c41         0.85097819950918163
    x94        c67         1.4983529003433798
    x94        c75         1.3606336034806279
    x94        c82         1.9996365533221343
    x94        c93         1.4599439028296659
    x94        c98         0.5750505496294126
    x95        obj        9.8432025771260374
    x95        c1         1.6981207422778781
    x95        c2         0.15339606105697795
    x95        c15         1.6353148383587079
    x95        c16         1.4996784467993955
    x95        c22         0.34684973295144084
    x95        c26         1.5224228043539003
    x95        c52         1.7971008181333989
    x95        c55         1.4057170703178838
    x95        c83         0.52630337433004881
    x96        obj        5.7113087106194094
    x96        c2         1.1279191952166561
    x96        c14         0.63250391411256612
    x96        c16         0.17383934499384429
    x96        c18         1.1577933288910236
    x96        c20         1.5059224731889274
    x96        c23         1.8552870289613548
    x96        c29         1.6970953630215031
    x96        c83         1.6822503098202386
    x96        c85         0.23230002159517088
    x96        c88         1.3692757672983187
    x97        obj        3.8859017441503951
    x97        c0         0.15178528839047609
    x97        c7         1.5910054099632491
    x97        c33         0.78378715578659142
    x97        c40         1.0994309472767556
    x97        c43         0.47106204118549178
    x97        c45         1.0567552692501243
    x97        c57         1.1052242775976278
    x97        c58         1.375821664461067
    x97        c60         1.8582920884869647
    x97        c64         0.37887412374783713
    x97        c71         0.52934897669616321
    x98        obj        9.3901590137518021
    x98        c10         1.4855098369720248
    x98        c23         0.23299882282097728
    x98        c26         1.7337467621214611
    x98        c54         1.0732954813355868
    x98        c62         1.2256877668750821
    x98        c65         0.5574097546381116
    x98        c66         1.9172556707427617
    x98        c78         1.5881881342371182
    x99        obj        6.1452352704893487
    x99        c0         0.78056923810627166
    x99        c1         0.66201345740964801
    x99        c23         0.12354678494759644
    x99        c40         1.3832871280590908
    x99        c67         1.0658542734499543
    x99        c71         0.23731153242417677
    x99        c81         0.73030320880828692
    x99        c89         1.0746210940044896
    x99        c92         0.19870115888390927
    x99        c97         1.6960750634687751
    x100        obj        9.1360287576868568
    x100        c41         1.4306007884501155
    x100        c47         1.8568173799252652
    x100        c93         0.47626237490746037
    x101        obj        5.2972846311966943
    x101        c1         0.33387850300069222
    x101        c7         0.67877969294675788
    x101        c12         0.63634499316954063
    x101        c13         1.7532157980059886
    x101        c15         0.91158482197907664
    x101        c33         1.6359157655844305
    x101        c52         0.78374741919140978
    x101        c55         1.1673100795048674
    x101        c64         1.4290316755909924
    x101        c67         1.304264640010778
    x101        c76         0.51339448938860721
    x101        c81         1.3867734835967118
    x102        obj        5.7440600857638016
    x102        c1         0.83336393284308985
    x102        c2         1.8153309783378584
    x102        c6         1.8157059791483945
    x102        c8         1.9564126066570695
    x102        c25         1.251086213140268
    x102        c32         1.2410789802421986
    x102        c33         0.47831809618300325
    x102        c48         1.2158426353412004
    x102        c63         1.7025445760446363
    x103        obj        7.4795127486043524
    x103        c5         0.59834903751580526
    x103        c18         0.49507895472158925
    x103        c35         0.61342467019494995
    x103        c73         1.1568031259227107
    x103        c85         0.12940925142643217
    x104        obj        2.443596796388035
    x104        c8         1.9456298378816352
    x104        c17         0.442638195362829
    x104        c24         1.7722964455664993
    x104        c28         1.8667700708488348
    x104        c42         0.3590011485541581
    x104        c52         1.1036684827267065
    x104        c61         0.55278175541980012
    x104        c67         0.62065766381127629
    x104        c71         1.0735703632169689
    x104        c72         1.6221227757835592
    x104        c80         1.8419734241165031
    x104        c88         0.41361198000145782
    x104        c92         0.81929756856173841
    x104        c93         1.4235006178536203
    x105        obj        6.4090328913200763
    x105        c1         1.2558176787021373
    x105        c6         0.24618513283809476
    x105        c8         1.9852005544556071
    x105        c32         0.53205562776702819
    x105        c50         0.3516090000807004
    x105        c54         1.5078544129591873
    x105        c60         0.29242584815654304
    x105        c61         1.8258718775082627
    x105        c68         0.16165465083449249
    x105        c85         0.16297390297461606
    x105        c89         0.38622818814360882
    x105        c97         1.9160869519951103
    x106        obj        7.0801088511822732
    x106        c9         1.0973976757555519
    x106        c20         0.1124212913632428
    x106        c29         0.67256094394272026
    x106        c34         1.1747164348290546
    x106        c65         0.41743016577296788
    x106        c69         0.30181674630232197
    x106        c97         0.56771836858859603
    x107        obj        5.3937924905754953
    x107        c12         1.3281283089512075
    x107        c31         1.021030918431616
    x107        c34         1.9208256909085419
    x107        c39         1.8896554427152377
    x107        c44         0.5859587576782741
    x107        c45         0.89855746370035328
    x107        c74         1.6386641724782436
    x107        c98         0.58675842646518817
    x108        obj        4.3392011733360665
    x108        c21         1.9622729978417435
    x108        c23         1.6975613585377549
    x108        c29         0.75478185091342631
    x108        c31         1.0826717903266989
    x108        c43         0.44617424246942705
    x108        c72         1.4267570682161508
    x108        c91         1.3383812621583775
    x109        obj        5.1155071801312211
    x109        c12         0.66344124052592857
    x109        c21         1.7952480061949971
    x109        c30         0.45082467079947275
    x109        c32         1.7716731567000656
    x109        c40         1.8142437012194499
    x109        c50         1.370510521549908
    x109        c53         0.13796317609696987
    x109        c55         1.8639147214938667
    x109        c60         0.5585591659544934
    x109        c69         0.47322457374265892
    x109        c71         1.338132220719557
    x109        c90         1.6347084875522691
    x109        c93         0.37332613572728868
    x110        obj        7.5947075022720494
    x110        c3         1.5616339843368747
    x110        c9         1.6235600548788531
    x110        c29         0.41777853339225013
    x110        c41         1.6983423606399208
    x110        c52         1.0511713616217229
    x110        c59         0.39020785919870449
    x110        c75         0.10963769532485371
    x110        c77         1.1145026994989675
    x110        c79         1.0515096878691828
    x110        c81         1.6006879370527876
    x110        c94         1.9576263398611564
    x110        c96         1.6854881645589928
    x110        c98         0.56988372610806148
    x111        obj        4.8262715643747356
    x111        c16         0.97139171610030717
    x111        c23         1.1883379595360173
    x111        c24         1.7473415064537348
    x111        c39         0.60217023861676877
    x111        c49         0.18099917752478098
    x111        c51         0.82794300580552127
    x111        c52         1.2057716146504573
    x111        c53         0.6561975921171187
    x111        c58         1.5040199946090274
    x111        c60         0.75236722333198536
    x111        c63         1.1792518605594895
    x111        c68         1.5335065182283192
    x111        c73         0.63600324194966129
    x111        c82         0.2986267195930985
    x111        c85         1.1068157093052151
    x112        obj        7.9172820897320193
    x112        c9         1.3785207140605342
    x112        c17         1.7590224716954963
    x112        c24         1.1981014927247851
    x112        c26         1.9833574984326279
    x112        c29         1.2478472612451421
    x112        c36         1.4331746391145213
    x112        c44         1.4028988059609102
    x112        c45         1.7773867870013693
    x112        c54         0.38151889069462619
    x112        c66         1.1478220291976884
    x112        c70         0.66698766383075347
    x112        c78         0.24811623468801836
    x113        obj        9.7680208193848799
    x113        c0         1.8799096622691112
    x113        c7         1.4121385369512807
    x113        c28         1.4107774167183011
    x113        c31         1.2081704714688908
    x113        c35         0.31499176514153276
    x113        c52         0.31262418560669486
    x113        c53         0.12209808948013162
    x113        c62         1.5678670890888078
    x113        c69         0.36711378004587869
    x113        c80         1.2748794445213305
    x113        c81         1.888273287278031
    x113        c84         1.707140784565959
    x114        obj        3.7529182528592271
    x114        c26         1.0314021500718928
    x114        c30         1.0660559521416624
    x114        c36         0.85484662339588657
    x114        c71         1.4609635729133672
    x114        c81         1.7879341918115972
    x114        c99         0.30706031891250374
    x115        obj        9.3957229852169615
    x115        c1         0.39801385355507601
    x115        c2         1.2030912393474644
    x115        c20         0.66018837690130527
    x115        c21         1.5014947973268808
    x115        c24         1.254614100821817
    x115        c39         0.77096878215479281
    x115        c61         1.6899114227628096
    x115        c67         0.4815296344508172
    x115        c73         0.12098066222937665
    x115        c79         1.3400190030292556
    x115        c90         0.87997595576759413
    x115        c95         0.56214554479585144
    x115        c96         0.93895455979767461
    x116        obj        7.0209318945787462
    x116        c2         1.2217715869526657
    x116        c15         0.99450543035751993
    x116        c21         0.30706661361681453
    x116        c28         0.88181514281581197
    x116        c31         0.5998676829505768
    x116        c79         0.22815839726645668
    x116        c83         1.9938950084528779
    x116        c86         0.6369732036188408
    x116        c88         1.5272840968635832
    x117        obj        5.5648797043924612
    x117        c2         0.85894525801553301
    x117        c19         0.39285940602564018
    x117        c32         0.72300020071765236
    x117        c40         1.551403004744228
    x117        c49         0.18168980200553836
    x117        c53         0.17903478462167538
    x117        c63         1.3790896954513037
    x117        c64         0.7210917226902952
    x117        c81         0.6866252313210871
    x117        c85         0.70905977098660666
    x117        c87         1.2069833322049801
    x117        c90         1.7884768443338155
    x118        obj        8.4250552474910823
    x118        c6         0.27882908601843259
    x118        c16         0.65059503199839341
    x118        c17         0.46349386505513723
    x118        c42         0.2405903776875741
    x118        c44         1.2159740032996849
    x118        c52         1.2917277459600292
    x118        c69         1.2901275545154149
    x118        c70         0.99110982706360606
    x118        c83         1.1164747440764264
    x118        c91         1.5938075424553233
    x118        c92         0.72820149234481379
    x119        obj        3.8496219917308165
    x119        c24         0.52182095284935925
    x119        c29         1.9893787066728663
    x119        c48         1.6101725952178554
    x119        c59         1.6641321263334976
    x119        c64         1.9525053852118261
    x119        c79         1.4887211502422493
    x119        c84         0.93820909860231594
    x119        c87         1.4459855178043304
    x119        c95         0.74931540433972632
    x120        obj        2.4825607671483811
    x120        c8         0.22833175136814457
    x120        c25         1.225693397138488
    x120        c26         0.84500399458197739
    x120        c28         0.90938465698871496
    x120        c41         1.6804712219814097
    x120        c64         0.80001510959579303
    x120        c75         1.3678859812099187
    x120        c85         1.6257434608038246
    x120        c91         1.5966895909671095
    x120        c97         1.108452121207026
    x121        obj        7.0972744864564179
    x121        c6         1.022679852882499
    x121        c23         1.3090694462078523
    x121        c34         1.662686181281213
    x121        c35         1.1568262785760826
    x121        c45         1.3905673848075366
    x121        c53         1.1146009937944901
    x121        c61         1.5233566358562969
    x121        c71         0.62322253621076396
    x121        c80         0.2417737681136421
    x121        c87         1.0045984704783231
    x121        c89         0.2859797432778054
    x121        c91         1.7651693816681999
    x122        obj        1.5280183486083085
    x122        c9         0.80894652052001792
    x122        c25         0.6898464931808086
    x122        c29         0.67319682587609941
    x122        c31         1.1172874796274572
    x122        c47         0.61605228720768967
    x122        c50         0.70141535401972177
    x122        c67         1.6975668882266017
    x122        c99         0.35304429743686161
    x123        obj        7.0369441106201132
    x123        c2         1.7427398701488865
    x123        c7         0.77276001748555212
    x123        c11         0.9854277765893239
    x123        c29         1.3523982153112188
    x123        c32         1.6285823400907919
    x123        c33         1.0779483336813225
    x123        c35         0.9698984203155202
    x123        c37         1.5909133682532695
    x123        c60         1.2242824207407224
    x123        c63         1.9298543767514047
    x123        c80         1.4195458858975896
    x123        c82         0.74848030400452925
    x123        c86         0.41886210434773674
    x123        c91         0.7250663804037657
    x124        obj        9.005735451106629
    x124        c1         1.7492847371581961
    x124        c39         0.47638436784975247
    x124        c47         1.1309218232129696
    x124        c57         0.10676659925416211
    x124        c62         1.3637479256974208
    x124        c73         1.8983641782160814
    x124        c83         0.74554814128927127
    x124        c85         0.7924706237052237
    x125        obj        3.4080646926166027
    x125        c0         0.47813060741911972
    x125        c1         0.52965233419832269
    x125        c11         1.854939822963297
    x125        c36         0.77843901736835885
    x125        c38         0.33455119844855663
    x125        c39         0.87171428667702477
    x125        c55         0.8365801103451983
    x125        c57         0.29157559915454256
    x125        c62         1.7287636302132197
    x125        c83         1.9005632211266452
    x125        c86         1.6582362309723304
    x125        c91         0.28024134194219985
    x126        obj        8.0925043338422782
    x126        c31         1.4007456566769323
    x126        c33         1.8207018756417008
    x126        c76         1.4750090651161119
    x126        c92         0.63884473473956638
    x126        c96         0.65912774075225367
    x126        c99         0.48736077566773117
    x127        obj        3.1794780938313028
    x127        c36         0.64543713699028082
    x127        c41         0.85608719713210646
    x127        c46         0.4109845475101892
    x127        c53         0.13013393837510859
    x127        c62         0.94855876969703323
    x127        c67         0.42880438791450348
    x127        c69         0.66127935614775324
    x127        c74         1.926672742497574
    x127        c88         1.7611145764671328
    x127        c91         1.3447391519061509
    x127        c94         0.47911206391507799
    x127        c96         1.3075651993918362
    x128        obj        7.4177024935752964
    x128        c16         0.5140808298196724
    x128        c19         1.8499113401911149
    x128        c50         1.3467457419003257
    x128        c60         0.90880374213478521
    x128        c73         1.6053633579858495
    x128        c83         1.7024777859454792
    x128        c87         0.92117041777442266
    x128        c89         1.2683693096042006
    x129        obj        6.2984545628189679
    x129        c1         1.0260905746931734
    x129        c17         1.4670926513889366
    x129        c18         0.54425312947251381
    x129        c27         0.38271966032538995
    x129        c30         1.2168601352556496
    x129        c33         1.3221386710734708
    x129        c42         0.61883744809602026
    x129        c52         0.7911376181825458
    x129        c81         0.92346170288442042
    x129        c88         0.91940498361078737
    x130        obj        5.0021380256320249
    x130        c28         1.9522766013660597
    x130        c31         0.38823305728666202
    x130        c64         0.16714742241117686
    x130        c65         0.85651934354700265
    x130        c72         1.0486785864413213
    x131        obj        2.821202069140988
    x131        c10         0.26123908833294185
    x131        c12         1.648439657498092
    x131        c24         1.9296292158479946
    x131        c39         0.45345671719757163
    x131        c45         1.4963081939275675
    x131        c55         0.1806122622953831
    x131        c59         0.9856244967492449
    x131        c67         1.2131896635521215
    x131        c94         0.40132004435978896
    x132        obj        3.0855542343156359
    x132        c14         1.5676685399896633
    x132        c15         0.11331830755965355
    x132        c24         1.9870959532612202
    x132        c36         1.747396572365258
    x132        c44         0.7582397479919033
    x132        c49         1.5602839309828573
    x132        c56         0.70905318050222266
    x132        c57         1.0916184981087727
    x132        c86         1.3554361074967936
    x133        obj        8.8873081817529922
    x133        c1         0.26659998328655349
    x133        c7         1.5222593981513546
    x133        c17         0.716000201587768
    x133        c19         0.25400878582539721
    x133        c37         0.98417928906427399
    x133        c58         0.36037204101764964
    x133        c63         1.951851738805636
    x133        c66         1.7723230239399395
    x133        c81         0.94424782831039411
    x133        c94         0.34282065979404575
    x133        c95         1.6470615320481807
    x134        obj        4.7190162768928783
    x134        c23         1.3143596875419463
    x134        c24         1.9737678855869925
    x134        c36         1.2416151559932347
    x134        c39         1.3195059326079897
    x134        c47         1.7959668099439738
    x134        c50         0.19618811144086074
    x134        c53         0.78372682485754974
    x134        c57         0.67462483281656727
    x134        c67         1.1841484886352263
    x134        c73         1.5465405537983812
    x134        c79         1.5674455582721698
    x134        c92         1.1953085602110789
    x135        obj        5.1188590413703867
    x135        c23         1.883509606589979
    x135        c27         1.3120162498972288
    x135        c42         0.5296443814124201
    x135        c47         0.91394559982909795
    x135        c76         0.49504262809498378
    x136        obj        5.390878461232381
    x136        c19         1.499567356410286
    x136        c26         0.31101039379344475
    x136        c63         0.7184468633182628
    x136        c64         0.15539908006656589
    x136        c68         1.9052825409134855
    x136        c79         0.23640858180530727
    x136        c85         1.2334318676438412
    x137        obj        1.5392628933048274
    x137        c10         1.3201166648382461
    x137        c13         1.7260347484764216
    x137        c38         1.1418453319158
    x137        c51         0.96534372653311207
    x137        c61         0.42145443264595039
    x137        c75         1.9121733485027741
    x137        c77         0.36370144459881071
    x138        obj        9.7253129328792465
    x138        c1         0.23996984143682915
    x138        c22         0.80032782551593351
    x138        c44         1.87490985366278
    x138        c57         1.0526677703127356
    x138        c68         1.4873263468734028
    x138        c82         1.0403220580809611
    x138        c87         1.7596168348721934
    x138        c93         1.9888560269404945
    x138        c94         1.0300690138101367
    x138        c99         0.7932704321137759
    x139        obj        2.1863908803259644
    x139        c9         0.57130354331147304
    x139        c10         0.15623554678554269
    x139        c21         1.556261869134937
    x139        c31         0.13024491295403878
    x139        c34         0.10421770086990612
    x139        c78         0.8251812133045987
    x140        obj        5.2505457726305798
    x140        c2         1.7439825270533891
    x140        c9         0.4863676286468962
    x140        c20         1.8352800218735528
    x140        c57         0.30233325273441136
    x140        c69         0.71402521278097686
    x140        c81         1.799833760303575
    x140        c87         1.7013844631770063
    x140        c88         0.96960936909686213
    x140        c89         1.9191171753203473
    x140        c96         1.0079892796974981
    x140        c99         1.4929311892400545
    x141        obj        1.0683642411877261
    x141        c3         0.16404116607322483
    x141        c8         0.14427407913400986
    x141        c75         1.0649992341622032
    x142        obj        8.9349534290617534
    x142        c12         0.88268381704805055
    x142        c15         1.74380735710601
    x142        c18         0.84052390920142483
    x142        c20         1.1661949279512986
    x142        c42         0.50468709344798646
    x142        c58         0.34539753806221912
    x142        c80         0.79393113831452622
    x142        c84         0.4773052992654051
    x142        c87         1.6728368387806924
    x143        obj        2.4251153081322103
    x143        c6         0.67616935930976341
    x143        c12         1.9440471085815929
    x143        c16         0.16507462294396158
    x143        c17         1.9878541931139886
    x143        c25         1.2413671658948733
    x143        c60         1.7101396969881857
    x143        c68         0.41858517336054779
    x143        c70         1.0847948875314761
    x143        c76         1.560286695438807
    x143        c80         0.18716505938992428
    x143        c85         1.4967324661474282
    x143        c86         1.2133043508470984
    x143        c91         0.29855608366494535
    x144        obj        7.7866419579919501
    x144        c3         0.72951743570505589
    x144        c18         1.9291182256587225
    x144        c19         0.4695621931152586
    x144        c20         1.8870517603200634
    x144        c41         1.971935266222939
    x144        c43         0.80403635536411422
    x144        c51         0.96167203887788377
    x144        c56         0.82034474767038479
    x144        c58         0.58221435888891504
    x144        c68         0.64171567080591851
    x144        c75         0.1224581276905118
    x144        c77         0.15058525428719899
    x144        c79         0.1909010483500212
    x144        c86         1.1846062880046992
    x144        c89         0.54318750168021379
    x145        obj        1.0957524487197947
    x145        c17         1.2139371502882226
    x145        c27         0.89772753687947904
    x145        c28         1.1145199699937525
    x145        c31         1.2247514183552459
    x145        c32         1.3968403779578042
    x145        c51         0.37842430531589411
    x145        c63         1.4021167897588809
    x145        c67         1.0040115103361513
    x145        c73         0.90293205117507003
    x145        c92         1.0544252922153559
    x146        obj        6.8838451517023369
    x146        c8         1.4424909108072483
    x146        c11         0.49679508765848479
    x146        c12         1.1674777048690557
    x146        c27         1.1633021567866511
    x146        c35         0.83999324991627078
    x146        c71         1.7710603070113489
    x146        c85         0.90488646870444933
    x146        c98         1.3130744249595279
    x147        obj        4.9767951523746268
    x147        c12         0.8079079453264264
    x147        c13         1.5348050960057897
    x147        c15         1.4243156664771732
    x147        c29         0.55499079637589954
    x147        c51         0.38721939782070103
    x147        c68         0.63285265302792748
    x147        c91         0.93766504468302336
    x147        c95         0.62906767913515926
    x147        c98         0.25665721050647045
    x148        obj        7.4774125073837148
    x148        c14         1.9236949542822495
    x148        c18         0.12867457924364251
    x148        c57         0.41336334023693666
    x148        c76         0.69971790398236089
    x148        c82         0.46975114873897195
    x148        c85         0.74538556827975122
    x148        c92         1.4197675622098327
    x148        c93         0.81741444883421233
    x148        c98         1.6565627446915883
    x149        obj        1.7577222019687333
    x149        c7         0.73469462801576113
    x149        c14         1.0136553946487992
    x149        c17         1.9789040099210438
    x149        c19         1.408626298180065
    x149        c20         0.19750447115818234
    x149        c51         1.5536017301953822
    x149        c74         1.366134022100383
    x149        c83         0.64858067716416623
    x149        c93         0.91928376324099625
    x150        obj        5.6616537670784854
    x150        c3         1.5185664986125977
    x150        c20         1.8234162794137057
    x150        c30         0.5357376765548143
    x150        c32         1.1932708051420404
    x150        c40         0.26707897459561014
    x150        c46         1.0071951326138382
    x150        c56         0.80289822646697551
    x150        c63         1.4235430217669083
    x150        c92         0.38008311286354257
    x151        obj        5.7008135382162815
    x151        c0         1.0128726931915424
    x151        c55         1.7565434638593775
    x151        c58         0.51713209589348763
    x151        c73         1.1944947647978874
    x151        c75         1.2187990642490387
    x151        c84         1.5345358169502745
    x151        c87         0.88487089897467286
    x151        c94         1.2805986457091481
    x152        obj        1.8537311333987034
    x152        c2         0.43170528402042208
    x152        c5         1.1902556657501153
    x152        c18         1.1329814379788588
    x152        c29         1.268878066212813
    x152        c33         0.77308544034955962
    x152        c35         1.1432544991083267
    x152        c49         1.7561020242081746
    x152        c52         0.80070148126705276
    x152        c71         0.32632617803396913
    x152        c73         0.24200703715766711
    x153        obj        7.4778580461627246
    x153        c7         0.15824944128570129
    x153        c9         1.6961276409534971
    x153        c12         0.15917564279098018
    x153        c14         0.12045445685682973
    x153        c30         1.6467244446942626
    x153        c32         0.63910123836420529
    x153        c37         1.9609692563938645
    x153        c40         1.7135235269443581
    x153        c53         0.5047346293714875
    x153        c67         1.9671516289917765
    x153        c68         1.2892230166750878
    x153        c71         0.66574764557540367
    x153        c82         0.96045816036737564
    x153        c98         0.27049158022176389
    x154        obj        2.2293598125834051
    x154        c10         0.25162922324844705
    x154        c26         0.20320676455694148
    x154        c30         0.79770313271216053
    x154        c46         0.99693053463609993
    x154        c83         1.2683002790081384
    x154        c84         0.57373183339092748
    x154        c88         1.844315228787555
    x155        obj        6.8690423132170233
    x155        c27         1.9168730853983131
    x155        c29         1.6691328277565975
    x155        c41         1.7635762332982046
    x155        c45         1.8879446725514168
    x155        c48         1.373656453458787
    x155        c60         1.2291543240847027
    x155        c62         0.26050181241517911
    x155        c66         1.9254529184448743
    x155        c69         1.0625175044659925
    x155        c72         0.13094710112532723
    x155        c84         1.8564225748858008
    x155        c88         0.53726206177680513
    x156        obj        4.3606231835607971
    x156        c31         1.7932620053100212
    x156        c42         0.14357715774054775
    x156        c46         0.34400575550636397
    x156        c47         0.26947798902318998
    x156        c50         0.67248680402695749
    x156        c51         1.0184665445166241
    x156        c61         0.98212704853435495
    x156        c97         1.733939800197525
    x157        obj        9.796504544509169
    x157        c30         1.5974145979820316
    x157        c51         0.37181596701631037
    x157        c57         1.6309488165817263
    x157        c69         0.21255083275473485
    x157        c77         0.46435153574595711
    x157        c81         0.88832689293099487
    x158        obj        5.5111412420949666
    x158        c3         0.78509199465379687
    x158        c6         1.4122747548003676
    x158        c7         1.5022750348011331
    x158        c27         1.8787106683593704
    x158        c32         0.41429714347830759
    x158        c33         0.56022581441321773
    x158        c47         0.96258634442151858
    x158        c49         0.11926394006599605
    x158        c69         0.64773233792690432
    x158        c73         0.99304131343473501
    x158        c77         1.518678848373243
    x158        c82         0.47701334089390124
    x158        c90         1.2054490599894676
    x159        obj        9.2231811746737442
    x159        c2         0.77625810135082396
    x159        c5         1.5764780984487148
    x159        c21         0.63504778347809421
    x159        c31         0.60816234495635013
    x159        c33         0.42383642216653927
    x159        c41         0.81287085368225265
    x159        c42         1.2956800436922931
    x159        c54         1.223922313217999
    x159        c60         1.2979951968967229
    x159        c68         0.84304844778498889
    x159        c72         0.83865740577636849
    x159        c74         0.79029700443437201
    x159        c78         0.86314226405621342
    x160        obj        2.5895660605692781
    x160        c3         1.4010576762590867
    x160        c4         0.84371766205385135
    x160        c32         0.33564115868853395
    x160        c36         1.0483080208318016
    x160        c37         0.23237149182729339
    x160        c39         0.7726357982419384
    x160        c56         1.6474897751818665
    x160        c72         1.8783634226024177
    x160        c73         0.53047634789493858
    x160        c74         1.680027055878859
    x160        c86         0.48731760069514607
    x160        c92         1.0621126379535166
    x161        obj        2.0618557495641276
    x161        c5         0.88254749794754361
    x161        c58         1.0603103457798526
    x161        c60         1.0983344675981359
    x161        c94         0.32890797285054968
    x161        c97         1.659698543529855
    x162        obj        5.7845419524212485
    x162        c3         1.4241835563454843
    x162        c10         0.84497141594394642
    x162        c19         0.70859881246972956
    x162        c33         1.3274363439574461
    x162        c45         1.1541019848142622
    x162        c61         1.0192633987533097
    x162        c70         1.3533209720062993
    x162        c71         1.8498226259856037
    x162        c87         1.5059117632315251
    x162        c89         0.39431518765082008
    x163        obj        1.4458414322674518
    x163        c1         0.71700720458170153
    x163        c6         1.3999954307706313
    x163        c15         0.89061893724289065
    x163        c35         1.3831566204209822
    x163        c47         1.8332173925741033
    x163        c48         1.169260033622217
    x163        c59         0.53508529481170486
    x163        c65         0.92369550771888431
    x163        c77         1.4442272584101803
    x163        c93         1.0499184809065241
    x164        obj        8.9574759576665333
    x164        c5         0.27682980557649417
    x164        c28         0.32311907917104854
    x164        c37         0.7202335821120317
    x164        c63         1.7257772337478061
    x164        c74         0.98368564918625145
    x164        c77         1.1414780946846952
    x164        c86         0.49334261013305825
    x164        c90         1.9496764928370001
    x165        obj        3.023747642001859
    x165        c19         1.4416713448056961
    x165        c22         0.19672723522953306
    x165        c31         1.6224537957308041
    x165        c37         0.94255995208986953
    x165        c39         1.0488140785611375
    x165        c48         1.0436042358676278
    x165        c65         0.67334608318107358
    x165        c73         1.3972003299402433
    x165        c91         0.9388884103574453
    x166        obj        7.096458353928373
    x166        c5         0.50212742542604272
    x166        c6         1.0537243662118385
    x166        c8         1.0709311550484675
    x166        c10         0.59952966269824204
    x166        c14         1.3473321249740609
    x166        c18         0.57251914540275839
    x166        c22         0.11700921745896248
    x166        c24         0.48663967907597683
    x166        c26         1.6018435420018362
    x166        c35         0.43496811343002051
    x166        c44         1.4349113796122164
    x166        c56         1.7770800489670477
    x166        c63         0.94581256160666616
    x166        c67         0.96086155687370456
    x166        c69         1.0866920869564993
    x166        c77         1.7218467843111909
    x166        c82         1.9635032876595144
    x166        c90         1.1348190699722882
    x166        c93         1.5884513403912437
    x166        c95         0.68722405232297912
    x167        obj        7.3984965688789011
    x167        c7         0.23955913835350831
    x167        c16         0.94202206744549455
    x167        c26         1.4235615348231101
    x167        c29         1.4187014101301096
    x167        c37         1.6388665446801549
    x167        c47         0.69086396315854992
    x167        c62         0.71816836951485508
    x167        c66         0.82520111309110122
    x167        c71         1.9187769136727819
    x167        c78         1.6567965165753655
    x167        c86         1.9017729737193838
    x167        c96         1.7681558331525113
    x168        obj        8.8978713076537996
    x168        c14         0.27701921313200623
    x168        c19         1.2775756014720758
    x168        c26         0.9002057435848082
    x168        c76         1.6491478374974955
    x168        c81         0.9020729094797858
    x168        c95         1.5134943111182841
    x169        obj        4.3433375269791608
    x169        c4         1.3231485215555228
    x169        c19         1.72127576032857
    x169        c22         1.1142674326992974
    x169        c23         1.1248307521421927
    x169        c41         1.3761651774529216
    x169        c47         1.6389209193006444
    x169        c54         1.6547674477344005
    x169        c56         0.85095981163857726
    x169        c59         0.15276256290271722
    x169        c62         1.9650843441001178
    x169        c78         1.5770898074700244
    x169        c96         1.7716877138903357
    x170        obj        7.1310924221830563
    x170        c10         0.71431351685258759
    x170        c20         1.7681111746058156
    x170        c29         0.10317608228372807
    x170        c57         1.1090136617235926
    x170        c85         0.14956604974042859
    x170        c87         1.8080618590982227
    x171        obj        3.8817580176573889
    x171        c1         0.69827321962103173
    x171        c8         1.6461187002697157
    x171        c17         1.2431114281793223
    x171        c23         1.4629596309949482
    x171        c25         1.8096347501913193
    x171        c39         1.4133917685362001
    x171        c43         1.8456740048154843
    x171        c62         1.5647800896856774
    x171        c71         0.2843411592195037
    x171        c77         0.4069704077388373
    x171        c82         1.6301252688943231
    x171        c84         1.5882669809535404
    x171        c95         0.1947929336965176
    x172        obj        4.3874753318026674
    x172        c3         0.27805391648135441
    x172        c6         0.67377192738034752
    x172        c18         1.542429512797731
    x172        c27         1.2520606245608707
    x172        c31         0.81466930600113863
    x172        c36         0.63701318567828802
    x172        c51         1.5645984266457127
    x172        c59         0.82235925826766698
    x173        obj        6.5963869436360074
    x173        c9         0.39387595488474447
    x173        c15         0.63937687914726793
    x173        c31         1.3775634860571861
    x173        c38         0.46494194952837198
    x173        c43         1.9786372784281625
    x173        c44         0.16696280372410849
    x173        c46         1.7152223321496218
    x173        c70         0.59263049272529778
    x173        c92         1.4876073047883449
    x173        c98         0.1020068134296222
    x174        obj        2.8194676788601587
    x174        c16         1.7705282742665978
    x174        c18         0.89260784004355509
    x174        c24         0.10198138721492193
    x174        c39         0.35682603901732735
    x174        c40         0.75755922403045517
    x174        c52         0.50545328435260228
    x174        c55         0.41984749960178158
    x174        c61         0.9584589895600989
    x174        c67         1.9028220628771848
    x174        c86         1.4933362137276651
    x174        c89         1.9219853245522716
    x174        c95         0.27583628673939736
    x174        c98         1.7328689094355274
    x175        obj        7.1110851047328287
    x175        c1         1.3034481721151656
    x175        c16         1.0834372165379043
    x175        c28         0.75050951781148634
    x175        c50         1.9251104915313824
    x175        c65         0.47202427849726669
    x175        c74         0.13573781199854634
    x175        c84         0.48947290114292252
    x175        c87         1.4556839970141324
    x175        c89         1.023584855888708
    x175        c91         1.1780469283907624
    x175        c98         0.88771113001029744
    x175        c99         1.9559517719886423
    x176        obj        2.5746495112421379
    x176        c6         1.1223497564474081
    x176        c13         1.5800719062288817
    x176        c16         0.86472589660910615
    x176        c28         1.0637287135425619
    x176        c37         1.7260110156759572
    x176        c44         1.2900781270581396
    x176        c56         0.43771761955125899
    x176        c65         0.21132448512037524
    x176        c72         0.10456240130823498
    x176        c75         0.1682207658172242
    x176        c76         1.4059645843746462
    x176        c88         1.8416950068345783
    x176        c94         1.0820325672190758
    x176        c95         1.0322529774063336
    x177        obj        8.65248154053074
    x177        c5         0.87974299035782655
    x177        c15         1.6639227399384464
    x177        c24         1.2664702337465714
    x177        c34         0.5833884044140627
    x177        c37         1.0605146774804399
    x177        c42         1.8753367677136572
    x177        c77         1.8229931780344439
    x177        c83         1.426206177275765
    x177        c87         1.4868220022920935
    x177        c92         0.27526702861765784
    x178        obj        6.7418402237432495
    x178        c10         1.9041349982871389
    x178        c13         1.0869588226806506
    x178        c19         1.3016621570565523
    x178        c29         1.7795409626484318
    x178        c30         1.7841782528902526
    x178        c35         0.60165766912693619
    x178        c41         0.78339793881465014
    x178        c44         1.4443678693488915
    x178        c45         0.6582645721813063
    x178        c46         0.45760551474727762
    x178        c49         1.8675352258689635
    x178        c58         0.72505258966602681
    x178        c85         0.58420736056541178
    x178        c91         1.490023980294036
    x178        c92         1.0572737305707247
    x179        obj        8.4482476166975147
    x179        c0         1.8811473829860956
    x179        c5         0.13359334816541227
    x179        c6         0.386096040694621
    x179        c19         1.7396753341849434
    x179        c23         0.37831915433098462
    x179        c25         1.9877341610329529
    x179        c36         0.94227705818495577
    x179        c38         1.9307241459198967
    x179        c55         0.99618952730010613
    x179        c63         0.65375880381805107
    x179        c65         0.782443463673276
    x179        c71         1.1973232275121977
    x179        c80         0.48296492236057043
    x179        c89         1.1578540908182273
    x180        obj        9.5095768887534184
    x180        c0         0.93341177334361503
    x180        c4         1.4434824033763671
    x180        c10         0.5031227809572465
    x180        c11         0.11213407257925759
    x180        c12         1.3945308162826111
    x180        c38         0.86461451937074585
    x180        c51         0.47351500173730909
    x180        c56         1.4713048259845936
    x180        c66         1.229504198515154
    x180        c78         0.23814968844254952
    x180        c82         1.1067342809309282
    x180        c84         0.47655376262857008
    x180        c88         0.89343281164496935
    x180        c94         1.2707770652455439
    x180        c95         1.2180039726862937
    x180        c96         1.966009374055091
    x180        c98         1.7598138901444271
    x181        obj        5.6592849196202932
    x181        c5         0.87268814093539437
    x181        c11         1.1501848680032341
    x181        c23         1.9031438725945629
    x181        c44         1.5341404306947846
    x181        c54         0.36018668362949569
    x181        c61         0.63654578440994014
    x181        c69         1.0524084844625199
    x181        c99         0.98069571278643841
    x182        obj        4.1304344675540801
    x182        c0         1.6720105596528811
    x182        c16         0.25256880515110891
    x182        c27         0.25175779836806894
    x182        c44         1.0608665750087483
    x182        c47         0.27462596935289207
    x182        c68         1.7606568211785834
    x182        c74         1.0921907887870415
    x182        c79         0.94782360625855766
    x182        c90         1.5958333847070267
    x183        obj        7.0996261542770336
    x183        c11         1.3500916962373855
    x183        c15         0.38525463493177414
    x183        c21         0.66286222185119781
    x183        c29         1.5293932512988491
    x183        c32         1.8862291928656609
    x183        c33         0.38989441637395028
    x183        c49         0.36757693877185871
    x183        c58         0.37818507339065843
    x183        c64         1.759796137392734
    x183        c69         0.2401422624953739
    x183        c75         1.4056975252700865
    x183        c77         0.79644397096623476
    x184        obj        4.5073476815834432
    x184        c5         0.51779473521198083
    x184        c39         1.1108128012622291
    x184        c69         1.5183617265789131
    x184        c70         1.6842773297742684
    x185        obj        9.4679173222035544
    x185        c36         0.87088421797000537
    x185        c41         0.96029307876791503
    x185        c55         1.3757799404361244
    x185        c59         1.4889569299761796
    x185        c70         1.3375310880713371
    x185        c89         1.0332637242718459
    x186        obj        3.3541277654871409
    x186        c10         1.2789571448641386
    x186        c22         0.3554625748369471
    x186        c40         0.99930811809195852
    x186        c77         0.1698685895915778
    x186        c84         1.237088883644831
    x186        c85         1.8218825676959465
    x187        obj        1.4931524898262154
    x187        c22         0.36015088293845543
    x187        c47         1.3909258302662697
    x187        c57         0.88539140919796777
    x187        c66         1.5681952170106261
    x187        c68         0.40850716151282584
    x187        c70         0.11386066332342677
    x187        c76         1.3821203168243379
    x187        c80         0.50797322407572321
    x187        c85         1.3503753869761983
    x187        c95         1.4603228154885319
    x188        obj        7.4280073848985717
    x188        c20         0.80658188894687355
    x188        c27         1.4980298633854408
    x188        c32         1.506471757472452
    x188        c56         1.0796208606864768
    x188        c61         1.2491340330210754
    x188        c83         0.77025778899402375
    x188        c94         0.60626402310237137
    x189        obj        7.0769376644059072
    x189        c0         0.38936565992730277
    x189        c3         1.0751060829158345
    x189        c7         0.53778653705045376
    x189        c20         1.587153752612986
    x189        c34         0.90235897436580392
    x189        c35         1.8958126082395168
    x189        c37         0.19935625445698651
    x189        c44         1.6509783032079628
    x189        c45         1.9651044683138064
    x189        c56         0.72961519215526183
    x190        obj        1.3029001903333661
    x190        c2         1.1666532482019338
    x190        c17         0.41268488390609037
    x190        c43         0.11368098069203082
    x190        c55         1.322642956835913
    x190        c59         0.13742487022769462
    x190        c61         1.3023193287404979
    x190        c63         0.44211035605402849
    x190        c64         0.65509221960222408
    x190        c66         0.37973965592177172
    x190        c72         1.7285855437540356
    x190        c78         1.0717895506162427
    x190        c86         0.11930450852607229
    x191        obj        4.554800060422421
    x191        c9         0.49015797858651455
    x191        c16         1.7333346984671982
    x191        c21         1.7078945473739366
    x191        c25         1.9516148389591579
    x191        c32         0.98341532108064211
    x191        c36         1.4001547239211443
    x191        c46         1.280333840374642
    x191        c50         1.2540946077351296
    x191        c55         0.54334682931374534
    x191        c57         1.8999491226106793
    x191        c82         0.40256191089697124
    x191        c87         1.9809878322488799
    x191        c99         0.9410604546672291
    x192        obj        3.347307933135844
    x192        c3         0.719604885307773
    x192        c8         0.25944315923454636
    x192        c12         1.357799289134745
    x192        c15         0.31614482291463919
    x192        c32         1.7289888107844888
    x192        c57         0.81998498284079213
    x192        c99         0.235842784657676
    x193        obj        9.7788216859420061
    x193        c9         1.9162758149064818
    x193        c11         1.5745425911424944
    x193        c16         1.3335065286284524
    x193        c40         1.1109572226895001
    x193        c47         1.1876912192148594
    x193        c51         0.84283068643274428
    x193        c58         1.301031072599897
    x193        c65         0.26057793482743363
    x193        c78         0.31404914079925839
    x193        c82         0.42028651209461043
    x193        c83         1.8799534246866878
    x193        c89         1.1960935948681779
    x193        c91         0.68984100953189142
    x194        obj        9.0213610245311013
    x194        c19         1.9045139943654661
    x194        c31         1.9303571144031944
    x194        c48         0.96168540049284101
    x194        c55         1.496165165835299
    x194        c79         0.59465671543856469
    x194        c82         0.62935852913169343
    x194        c91         0.34844707279325959
    x194        c97         0.82674262684579114
    x195        obj        4.1740868341716011
    x195        c8         1.4043796680890124
    x195        c26         0.55145640561026565
    x195        c27         0.36397747524024315
    x195        c50         1.3006665319719479
    x195        c51         0.19589410738298496
    x195        c66         0.7344466035335907
    x195        c74         0.67229910853242303
    x195        c86         0.15122880780640768
    x195        c96         1.9027260913429331
    x196        obj        8.4497925068472171
    x196        c2         0.72801003599392478
    x196        c7         0.39150586558399536
    x196        c11         1.1553756046430459
    x196        c12         0.87495064991482341
    x196        c26         1.3689177105154213
    x196        c29         0.37240550308556064
    x196        c37         0.13672045398968255
    x196        c50         1.4771889902630546
    x196        c57         1.2554576818726209
    x196        c59         0.68762199274703351
    x196        c72         0.79490774235633488
    x196        c78         0.52825329770333584
    x196        c81         0.83770536362231074
    x196        c95         0.86423645112442837
    x197        obj        1.1047935127052317
    x197        c28         0.77076254441846181
    x197        c34         1.8696792004824792
    x197        c64         1.4288163823904216
    x197        c78         0.11385322666211511
    x197        c83         1.4885896605576763
    x198        obj        1.7950400527095125
    x198        c4         1.4784657444638871
    x198        c9         0.76544731406234878
    x198        c30         0.80691839533233967
    x198        c65         1.4249138678456996
    x198        c68         0.99403817806326233
    x199        obj        7.1300265529028852
    x199        c3         0.7394818393526863
    x199        c9         0.83486027132138563
    x199        c17         1.2920611770746848
    x199        c33         1.7123685535223461
    x199        c42         1.0534047941717122
    x199        c53         0.38105081009323816
    x199        c54         0.61857632700559972
    x199        c59         1.1431669995076874
    x199        c64         0.78993717695534782
    x199        c66         0.23776937481725147
    x199        c69         0.69806189235861293
    x199        c79         1.8549674890534886
    x199        c80         1.0123521010351653
    x199        c95         1.1393333690542156
    x199        c98         1.4677963717241727
RHS
    rhs       c0         6.6750826234051548
    rhs       c1         7.3978996999038715
    rhs       c2         7.2576216066024388
    rhs       c3         8.0306721201214781
    rhs       c4         7.0883423181969949
    rhs       c5         8.7412372936596938
    rhs       c6         7.4108683997088312
    rhs       c7         7.302522828462898
    rhs       c8         9.3964893549081534
    rhs       c9         7.3500631017167439
    rhs       c10         6.7620472486494094
    rhs       c11         8.3845433944289933
    rhs       c12         8.3992263249531689
    rhs       c13         8.976596874595808
    rhs       c14         8.0178030284876805
    rhs       c15         7.294870025810777
    rhs       c16         8.4869615122209137
    rhs       c17         7.7665068179721022
    rhs       c18         8.9795742503794553
    rhs       c19         8.3832295233407201
    rhs       c20         7.7663361662092347
    rhs       c21         9.0144535966655681
    rhs       c22         6.0340896984230801
    rhs       c23         8.4259053830155803
    rhs       c24         8.6616949796998295
    rhs       c25         8.7284764779353932
    rhs       c26         8.4676141537132565
    rhs       c27         10.341152863606688
    rhs       c28         7.962391154229147
    rhs       c29         9.3946505605490547
    rhs       c30         7.5817841321887673
    rhs       c31         8.8105924686475419
    rhs       c32         9.0938098792154491
    rhs       c33         8.4627080783914153
    rhs       c34         8.9771585185104943
    rhs       c35         8.4603070584424014
    rhs       c36         8.1826790054273619
    rhs       c37         7.2837052963005551
    rhs       c38         6.8440098805517948
    rhs       c39         7.1727746423456793
    rhs       c40         8.2463542514783548
    rhs       c41         9.9780348090984781
    rhs       c42         6.6150655277748882
    rhs       c43         8.2981267530221317
    rhs       c44         10.341845597729476
    rhs       c45         7.1156736520012291
    rhs       c46         7.2127489505911146
    rhs       c47         8.9969354659902354
    rhs       c48         9.2235682259025786
    rhs       c49         7.4979734331251215
    rhs       c50         8.2512993970556572
    rhs       c51         7.0342870360647467
    rhs       c52         7.6384422447119436
    rhs       c53         5.2219170477651442
    rhs       c54         9.4502429547326425
    rhs       c55         7.5465369564649691
    rhs       c56         8.2948886864619755
    rhs       c57         7.2945620459580773
    rhs       c58         8.0371942427625829
    rhs       c59         6.3191309116078038
    rhs       c60         8.3238132182777953
    rhs       c61         7.4518734312902941
    rhs       c62         8.8336315661090374
    rhs       c63         9.6829125679402122
    rhs       c64         9.1020133917819077
    rhs       c65         7.049713384236874
    rhs       c66         7.7336793219389905
    rhs       c67         8.5078882484182561
    rhs       c68         7.8857371941648253
    rhs       c69         7.1246320246086459
    rhs       c70         7.105740618211577
    rhs       c71         7.6803809171925765
    rhs       c72         8.2716280647135179
    rhs       c73         8.5515824406884811
    rhs       c74         8.3035971559681485
    rhs       c75         8.4758517028769287
    rhs       c76         7.8309747548375501
    rhs       c77         7.1272106637866388
    rhs       c78         7.3107551982203125
    rhs       c79         7.9461942615186949
    rhs       c80         6.8201755708878427
    rhs       c81         9.1153656954926561
    rhs       c82         7.8004907500546921
    rhs       c83         9.52107532500575
    rhs       c84         7.4947251286953076
    rhs       c85         7.8065018721758239
    rhs       c86         7.022391252289828
    rhs       c87         10.528918926496473
    rhs       c88         8.6783579187533206
    rhs       c89         8.0772213798713395
    rhs       c90         8.6360966734874829
    rhs       c91         8.0714827980059756
    rhs       c92         6.514715525889935
    rhs       c93         7.0468892294771281
    rhs       c94         6.9263146957466892
    rhs       c95         8.1532139607611853
    rhs       c96         10.179534723146206
    rhs       c97         7.9567504129306545
    rhs       c98         8.120420609835751
    rhs       c99         8.080426274414334
BOUNDS
 LO bnd       x0         0
 UP bnd       x0         1
 LO bnd       x1         0
 UP bnd       x1         1
 LO bnd       x2         0
 UP bnd       x2         1
 LO bnd       x3         0
 UP bnd       x3         1
 LO bnd       x4         0
 UP bnd       x4         1
 LO bnd       x5         0
 UP bnd       x5         1
 LO bnd       x6         0
 UP bnd       x6         1
 LO bnd       x7         0
 UP bnd       x7         1
 LO bnd       x8         0
 UP bnd       x8         1
 LO bnd       x9         0
 UP bnd       x9         1
 LO bnd       x10         0
 UP bnd       x10         1
 LO bnd       x11         0
 UP bnd       x11         1
 LO bnd       x12         0
 UP bnd       x12         1
 LO bnd       x13         0
 UP bnd       x13         1
 LO bnd       x14         0
 UP bnd       x14         1
 LO bnd       x15         0
 UP bnd       x15         1
 LO bnd       x16         0
 UP bnd       x16         1
 LO bnd       x17         0
 UP bnd       x17         1
 LO bnd       x18         0
 UP bnd       x18         1
 LO bnd       x19         0
 UP bnd       x19         1
 LO bnd       x20         0
 UP bnd       x20         1
 LO bnd       x21         0
 UP bnd       x21         1
 LO bnd       x22         0
 UP bnd       x22         1
 LO bnd       x23         0
 UP bnd       x23         1
 LO bnd       x24         0
 UP bnd       x24         1
 LO bnd       x25         0
 UP bnd       x25         1
 LO bnd       x26         0
 UP bnd       x26         1
 LO bnd       x27         0
 UP bnd       x27         1
 LO bnd       x28         0
 UP bnd       x28         1
 LO bnd       x29         0
 UP bnd       x29         1
 LO bnd       x30         0
 UP bnd       x30         1
 LO bnd       x31         0
 UP bnd       x31         1
 LO bnd       x32         0
 UP bnd       x32         1
 LO bnd       x33         0
 UP bnd       x33         1
 LO bnd       x34         0
 UP bnd       x34         1
 LO bnd       x35         0
 UP bnd       x35         1
 LO bnd       x36         0
 UP bnd       x36         1
 LO bnd       x37         0
 UP bnd       x37         1
 LO bnd       x38         0
 UP bnd       x38         1
 LO bnd       x39         0
 UP bnd       x39         1
 LO bnd       x40         0
 UP bnd       x40         1
 LO bnd       x41         0
 UP bnd       x41         1
 LO bnd       x42         0
 UP bnd       x42         1
 LO bnd       x43         0
 UP bnd       x43         1
 LO bnd       x44         0
 UP bnd       x44         1
 LO bnd       x45         0
 UP bnd       x45         1
 LO bnd       x46         0
 UP bnd       x46         1
 LO bnd       x47         0
 UP bnd       x47         1
 LO bnd       x48         0
 UP bnd       x48         1
 LO bnd       x49         0
 UP bnd       x49         1
 LO bnd       x50         0
 UP bnd       x50         1
 LO bnd       x51         0
 UP bnd       x51         1
 LO bnd       x52         0
 UP bnd       x52         1
 LO bnd       x53         0
 UP bnd       x53         1
 LO bnd       x54         0
 UP bnd       x54         1
 LO bnd       x55         0
 UP bnd       x55         1
 LO bnd       x56         0
 UP bnd       x56         1
 LO bnd       x57         0
 UP bnd       x57         1
 LO bnd       x58         0
 UP bnd       x58         1
 LO bnd       x59         0
 UP bnd       x59         1
 LO bnd       x60         0
 UP bnd       x60         1
 LO bnd       x61         0
 UP bnd       x61         1
 LO bnd       x62         0
 UP bnd       x62         1
 LO bnd       x63         0
 UP bnd       x63         1
 LO bnd       x64         0
 UP bnd       x64         1
 LO bnd       x65         0
 UP bnd       x65         1
 LO bnd       x66         0
 UP bnd       x66         1
 LO bnd       x67         0
 UP bnd       x67         1
 LO bnd       x68         0
 UP bnd       x68         1
 LO bnd       x69         0
 UP bnd       x69         1
 LO bnd       x70         0
 UP bnd       x70         1
 LO bnd       x71         0
 UP bnd       x71         1
 LO bnd       x72         0
 UP bnd       x72         1
 LO bnd       x73         0
 UP bnd       x73         1
 LO bnd       x74         0
 UP bnd       x74         1
 LO bnd       x75         0
 UP bnd       x75         1
 LO bnd       x76         0
 UP bnd       x76         1
 LO bnd       x77         0
 UP bnd       x77         1
 LO bnd       x78         0
 UP bnd       x78         1
 LO bnd       x79         0
 UP bnd       x79         1
 LO bnd       x80         0
 UP bnd       x80         1
 LO bnd       x81         0
 UP bnd       x81         1
 LO bnd       x82         0
 UP bnd       x82         1
 LO bnd       x83         0
 UP bnd       x83         1
 LO bnd       x84         0
 UP bnd       x84         1
 LO bnd       x85         0
 UP bnd       x85         1
 LO bnd       x86         0
 UP bnd       x86         1
 LO bnd       x87         0
 UP bnd       x87         1
 LO bnd       x88         0
 UP bnd       x88         1
 LO bnd       x89         0
 UP bnd       x89         1
 LO bnd       x90         0
 UP bnd       x90         1
 LO bnd       x91         0
 UP bnd       x91         1
 LO bnd       x92         0
 UP bnd       x92         1
 LO bnd       x93         0
 UP bnd       x93         1
 LO bnd       x94         0
 UP bnd       x94         1
 LO bnd       x95         0
 UP bnd       x95         1
 LO bnd       x96         0
 UP bnd       x96         1
 LO bnd       x97         0
 UP bnd       x97         1
 LO bnd       x98         0
 UP bnd       x98         1
 LO bnd       x99         0
 UP bnd       x99         1
 LO bnd       x100         0
 UP bnd       x100         1
 LO bnd       x101         0
 UP bnd       x101         1
 LO bnd       x102         0
 UP bnd       x102         1
 LO bnd       x103         0
 UP bnd       x103         1
 LO bnd       x104         0
 UP bnd       x104         1
 LO bnd       x105         0
 UP bnd       x105         1
 LO bnd       x106         0
 UP bnd       x106         1
 LO bnd       x107         0
 UP bnd       x107         1
 LO bnd       x108         0
 UP bnd       x108         1
 LO bnd       x109         0
 UP bnd       x109         1
 LO bnd       x110         0
 UP bnd       x110         1
 LO bnd       x111         0
 UP bnd       x111         1
 LO bnd       x112         0
 UP bnd       x112         1
 LO bnd       x113         0
 UP bnd       x113         1
 LO bnd       x114         0
 UP bnd       x114         1
 LO bnd       x115         0
 UP bnd       x115         1
 LO bnd       x116         0
 UP bnd       x116         1
 LO bnd       x117         0
 UP bnd       x117         1
 LO bnd       x118         0
 UP bnd       x118         1
 LO bnd       x119         0
 UP bnd       x119         1
 LO bnd       x120         0
 UP bnd       x120         1
 LO bnd       x121         0
 UP bnd       x121         1
 LO bnd       x122         0
 UP bnd       x122         1
 LO bnd       x123         0
 UP bnd       x123         1
 LO bnd       x124         0
 UP bnd       x124         1
 LO bnd       x125         0
 UP bnd       x125         1
 LO bnd       x126         0
 UP bnd       x126         1
 LO bnd       x127         0
 UP bnd       x127         1
 LO bnd       x128         0
 UP bnd       x128         1
 LO bnd       x129         0
 UP bnd       x129         1
 LO bnd       x130         0
 UP bnd       x130         1
 LO bnd       x131         0
 UP bnd       x131         1
 LO bnd       x132         0
 UP bnd       x132         1
 LO bnd       x133         0
 UP bnd       x133         1
 LO bnd       x134         0
 UP bnd       x134         1
 LO bnd       x135         0
 UP bnd       x135         1
 LO bnd       x136         0
 UP bnd       x136         1
 LO bnd       x137         0
 UP bnd       x137         1
 LO bnd       x138         0
 UP bnd       x138         1
 LO bnd       x139         0
 UP bnd       x139         1
 LO bnd       x140         0
 UP bnd       x140         1
 LO bnd       x141         0
 UP bnd       x141         1
 LO bnd       x142         0
 UP bnd       x142         1
 LO bnd       x143         0
 UP bnd       x143         1
 LO bnd       x144         0
 UP bnd       x144         1
 LO bnd       x145         0
 UP bnd       x145         1
 LO bnd       x146         0
 UP bnd       x146         1
 LO bnd       x147         0
 UP bnd       x147         1
 LO bnd       x148         0
 UP bnd       x148         1
 LO bnd       x149         0
 UP bnd       x149         1
 LO bnd       x150         0
 UP bnd       x150         1
 LO bnd       x151         0
 UP bnd       x151         1
 LO bnd       x152         0
 UP bnd       x152         1
 LO bnd       x153         0
 UP bnd       x153         1
 LO bnd       x154         0
 UP bnd       x154         1
 LO bnd       x155         0
 UP bnd       x155         1
 LO bnd       x156         0
 UP bnd       x156         1
 LO bnd       x157         0
 UP bnd       x157         1
 LO bnd       x158         0
 UP bnd       x158         1
 LO bnd       x159         0
 UP bnd       x159         1
 LO bnd       x160         0
 UP bnd       x160         1
 LO bnd       x161         0
 UP bnd       x161         1
 LO bnd       x162         0
 UP bnd       x162         1
 LO bnd       x163         0
 UP bnd       x163         1
 LO bnd       x164         0
 UP bnd       x164         1
 LO bnd       x165         0
 UP bnd       x165         1
 LO bnd       x166         0
 UP bnd       x166         1
 LO bnd       x167         0
 UP bnd       x167         1
 LO bnd       x168         0
 UP bnd       x168         1
 LO bnd       x169         0
 UP bnd       x169         1
 LO bnd       x170         0
 UP bnd       x170         1
 LO bnd       x171         0
 UP bnd       x171         1
 LO bnd       x172         0
 UP bnd       x172         1
 LO bnd       x173         0
 UP bnd       x173         1
 LO bnd       x174         0
 UP bnd       x174         1
 LO bnd       x175         0
 UP bnd       x175         1
 LO bnd       x176         0
 UP bnd       x176         1
 LO bnd       x177         0
 UP bnd       x177         1
 LO bnd       x178         0
 UP bnd       x178         1
 LO bnd       x179         0
 UP bnd       x179         1
 LO bnd       x180         0
 UP bnd       x180         1
 LO bnd       x181         0
 UP bnd       x181         1
 LO bnd       x182         0
 UP bnd       x182         1
 LO bnd       x183         0
 UP bnd       x183         1
 LO bnd       x184         0
 UP bnd       x184         1
 LO bnd       x185         0
 UP bnd       x185         1
 LO bnd       x186         0
 UP bnd       x186         1
 LO bnd       x187         0
 UP bnd       x187         1
 LO bnd       x188         0
 UP bnd       x188         1
 LO bnd       x189         0
 UP bnd       x189         1
 LO bnd       x190         0
 UP bnd       x190         1
 LO bnd       x191         0
 UP bnd       x191         1
 LO bnd       x192         0
 UP bnd       x192         1
 LO bnd       x193         0
 UP bnd       x193         1
 LO bnd       x194         0
 UP bnd       x194         1
 LO bnd       x195         0
 UP bnd       x195         1
 LO bnd       x196         0
 UP bnd       x196         1
 LO bnd       x197         0
 UP bnd       x197         1
 LO bnd       x198         0
 UP bnd       x198         1
 LO bnd       x199         0
 UP bnd       x199         1
ENDATA
