NAME lp_400x200
ROWS
 N obj
 G c0
 G c1
 G c2
 G c3
 G c4
 G c5
 G c6
 G c7
 G c8
 G c9
 G c10
 G c11
 G c12
 G c13
 G c14
 G c15
 G c16
 G c17
 G c18
 G c19
 G c20
 G c21
 G c22
 G c23
 G c24
 G c25
 G c26
 G c27
 G c28
 G c29
 G c30
 G c31
 G c32
 G c33
 G c34
 G c35
 G c36
 G c37
 G c38
 G c39
 G c40
 G c41
 G c42
 G c43
 G c44
 G c45
 G c46
 G c47
 G c48
 G c49
 G c50
 G c51
 G c52
 G c53
 G c54
 G c55
 G c56
 G c57
 G c58
 G c59
 G c60
 G c61
 G c62
 G c63
 G c64
 G c65
 G c66
 G c67
 G c68
 G c69
 G c70
 G c71
 G c72
 G c73
 G c74
 G c75
 G c76
 G c77
 G c78
 G c79
 G c80
 G c81
 G c82
 G c83
 G c84
 G c85
 G c86
 G c87
 G c88
 G c89
 G c90
 G c91
 G c92
 G c93
 G c94
 G c95
 G c96
 G c97
 G c98
 G c99
 G c100
 G c101
 G c102
 G c103
 G c104
 G c105
 G c106
 G c107
 G c108
 G c109
 G c110
 G c111
 G c112
 G c113
 G c114
 G c115
 G c116
 G c117
 G c118
 G c119
 G c120
 G c121
 G c122
 G c123
 G c124
 G c125
 G c126
 G c127
 G c128
 G c129
 G c130
 G c131
 G c132
 G c133
 G c134
 G c135
 G c136
 G c137
 G c138
 G c139
 G c140
 G c141
 G c142
 G c143
 G c144
 G c145
 G c146
 G c147
 G c148
 G c149
 G c150
 G c151
 G c152
 G c153
 G c154
 G c155
 G c156
 G c157
 G c158
 G c159
 G c160
 G c161
 G c162
 G c163
 G c164
 G c165
 G c166
 G c167
 G c168
 G c169
 G c170
 G c171
 G c172
 G c173
 G c174
 G c175
 G c176
 G c177
 G c178
 G c179
 G c180
 G c181
 G c182
 G c183
 G c184
 G c185
 G c186
 G c187
 G c188
 G c189
 G c190
 G c191
 G c192
 G c193
 G c194
 G c195
 G c196
 G c197
 G c198
 G c199
COLUMNS
    x0        obj        3.8928243667203919
    x0        c7         0.9688622425981146
    x0        c35         1.3926106078455271
    x0        c58         1.0191470789795005
    x0        c64         1.626115987608302
    x0        c79         0.17260073667776199
    x0        c102         1.2258840187025097
    x0        c116         0.8145623731869881
    x0        c128         0.14507126433334405
    x0        c162         0.233660208118596
    x0        c167         1.3201305318507586
    x0        c168         0.73535809977986155
    x0        c172         1.6327462070024454
    x0        c178         1.7795301296432859
    x0        c179         1.6923499638685879
    x0        c180         0.1644107630054174
    x0        c197         1.7345041170092466
    x1        obj        3.9203048586413898
    x1        c6         1.3145115225578829
    x1        c18         0.42613472746782388
    x1        c19         0.50866313105827787
    x1        c22         1.0504486716534893
    x1        c46         0.25942632174540969
    x1        c47         1.5107849929622692
    x1        c50         0.31236010611937304
    x1        c67         0.99110835540117581
    x1        c73         0.69234744378659596
    x1        c82         1.0077219588084032
    x1        c88         1.8720523617262042
    x1        c92         0.41085802197120402
    x1        c108         1.4565513173512707
    x1        c125         0.9924099179896223
    x1        c156         0.57898447065832592
    x1        c182         0.90164912667888197
    x1        c195         1.675224093457421
    x1        c197         0.65625522077779286
    x2        obj        8.2311133665158209
    x2        c25         1.1970723945804382
    x2        c29         0.7496535866803109
    x2        c35         1.3492113608870397
    x2        c59         1.8110976360866757
    x2        c69         1.0161814647453493
    x2        c84         0.534543502082091
    x2        c85         1.3785022892894281
    x2        c87         1.8264454235070211
    x2        c88         0.81908923224686159
    x2        c95         1.3474743294470688
    x2        c101         0.39859718338940664
    x2        c105         0.97015104529995788
    x2        c112         0.36955771032679885
    x2        c113         0.477655418259743
    x2        c119         0.21246677553967613
    x2        c128         1.055325393367875
    x2        c132         0.38867224219370566
    x2        c153         0.36642582124420164
    x2        c171         0.28276944332889514
    x2        c185         0.28778142244805072
    x2        c193         1.6805143900435047
    x3        obj        6.5678947688814526
    x3        c15         1.2996885944860794
    x3        c28         1.8781474861609257
    x3        c39         0.54008396811085935
    x3        c46         0.88420070643592463
    x3        c74         1.2163377165888847
    x3        c75         0.77715120195017262
    x3        c81         0.98052155212916658
    x3        c91         0.12091517090890297
    x3        c93         1.950226622212262
    x3        c109         1.0144335887182951
    x3        c110         0.36479942555966371
    x3        c120         1.4733670065249223
    x3        c125         1.6610888792227323
    x3        c131         0.16036139398350188
    x3        c166         1.5372580381249561
    x3        c180         1.3728532039219541
    x4        obj        1.3826010693291266
    x4        c9         1.7062241581516453
    x4        c13         1.1328663038847711
    x4        c20         1.5210568708172243
    x4        c22         0.54913399940084517
    x4        c29         1.4708087396233438
    x4        c31         0.84860677239141913
    x4        c38         1.6005890885910037
    x4        c47         0.85593294963290978
    x4        c51         0.55563458778587582
    x4        c54         0.66865914980787067
    x4        c58         0.70468894603744892
    x4        c60         1.6034052313278375
    x4        c95         1.305246673741129
    x4        c96         1.4656259682269932
    x4        c124         0.23175167277413566
    x4        c149         1.818127363557615
    x4        c158         0.58716576776989893
    x4        c163         1.0373202887786657
    x4        c165         0.6900488823097144
    x4        c167         1.8410277311791654
    x4        c170         0.20970651240659111
    x4        c192         0.44894933528992409
    x5        obj        7.1576817487230917
    x5        c0         1.6814923796151344
    x5        c6         1.8208199167753183
    x5        c20         1.1857104666253695
    x5        c21         0.15546996961747472
    x5        c24         0.8857169738069679
    x5        c26         1.3002014180272954
    x5        c27         0.24732647587893145
    x5        c31         0.91712385518171691
    x5        c35         1.3844090180478317
    x5        c38         0.84161808170084307
    x5        c42         1.1242597954269216
    x5        c48         1.7512361808509194
    x5        c61         1.4186689855803778
    x5        c68         1.6635980070387255
    x5        c72         0.59932076210661256
    x5        c75         1.0413550896515762
    x5        c103         0.44528864312373684
    x5        c123         1.0740582680084014
    x5        c135         0.24306582701835946
    x5        c145         1.9315652998557091
    x5        c159         1.9227397469084517
    x5        c191         0.32361068835820372
    x5        c194         1.0356825661843847
    x6        obj        4.0438455338333545
    x6        c24         1.9677427635350475
    x6        c47         1.3272796540293974
    x6        c50         0.31879015628927587
    x6        c60         1.9925667655471153
    x6        c61         1.6631769620894234
    x6        c84         1.7904045969539808
    x6        c115         1.9938742445845168
    x6        c119         0.44851965297247109
    x6        c138         1.8792277819808549
    x6        c157         1.7013173211033406
    x6        c181         1.7287989891388351
    x6        c187         1.6035560928124992
    x7        obj        5.9677888533426398
    x7        c10         1.067204260718873
    x7        c21         1.8826055640883879
    x7        c30         0.65381286919088621
    x7        c36         0.95678606439573399
    x7        c39         0.14205441332264981
    x7        c45         1.5551132717590546
    x7        c64         1.3620176100772456
    x7        c68         0.42255600696143225
    x7        c76         1.0136085809139606
    x7        c83         0.69385803633868781
    x7        c94         0.74303170555694231
    x7        c95         0.77645943567144748
    x7        c117         0.41292217922006624
    x7        c119         0.35985703782859135
    x7        c120         0.85926230495879108
    x7        c134         1.8659841723798301
    x7        c135         0.15810192237084367
    x7        c149         0.6227674385261619
    x7        c167         0.91126732230183627
    x7        c186         1.3539397418113424
    x7        c192         1.4643717198139592
    x7        c193         0.80034460608663383
    x8        obj        2.2726357650148654
    x8        c2         1.5878472702982755
    x8        c17         0.19075032126857439
    x8        c60         1.090725908831359
    x8        c65         1.6369849690011458
    x8        c75         1.7905014629072011
    x8        c81         1.6468034612568327
    x8        c91         0.47918740216822298
    x8        c96         0.98693676397314567
    x8        c103         0.92269314698534488
    x8        c114         0.91209679479739336
    x8        c118         1.3715516182442182
    x8        c127         0.26199162719627789
    x8        c142         1.2113645893740368
    x8        c187         1.4681574359283007
    x8        c194         1.9984160173047385
    x9        obj        1.2412289541653327
    x9        c14         0.98595727218609563
    x9        c18         1.8612046165374505
    x9        c22         1.5604725376251705
    x9        c38         0.95446307972275257
    x9        c50         0.66823953988381091
    x9        c65         1.929595847102336
    x9        c68         1.8213057888031357
    x9        c133         1.6126088187786771
    x9        c138         0.34807098458553787
    x9        c142         1.1300832069581739
    x9        c177         1.3226973158830591
    x9        c192         1.1388012759944268
    x9        c195         0.28170533832834177
    x9        c196         0.71724609384286309
    x10        obj        4.5631457128261594
    x10        c25         1.7285490150943668
    x10        c40         1.0648095807289277
    x10        c42         0.60783069506452958
    x10        c46         1.9952042650005237
    x10        c50         1.932685609527504
    x10        c96         1.9022755509529354
    x10        c100         0.84789410314750902
    x10        c115         0.25749714391911077
    x10        c124         1.2040677360246268
    x10        c131         1.3400066910402675
    x10        c143         1.9070031327609291
    x10        c157         1.2425567486991205
    x10        c162         1.600985904639066
    x10        c163         1.8371602235148905
    x10        c171         0.7577959512729453
    x10        c178         0.41150978552984907
    x10        c194         0.69352042186453311
    x11        obj        6.0148625598753567
    x11        c15         0.54174742074092308
    x11        c18         1.6516738979298511
    x11        c52         1.0288728595691743
    x11        c63         0.19399932490379682
    x11        c82         0.6250391958538265
    x11        c92         1.0146926673893364
    x11        c146         1.1660340462362602
    x11        c151         1.461092473876421
    x11        c153         1.9895108671020429
    x11        c158         1.1999338693470414
    x11        c185         0.8435529592559361
    x11        c189         1.3759224127586143
    x11        c191         1.8280192070088546
    x11        c194         0.47844060685898882
    x12        obj        7.2697989784786419
    x12        c13         1.3840812055638045
    x12        c23         1.4096634533327872
    x12        c30         0.390655045510935
    x12        c34         1.9367637584029305
    x12        c35         1.0627186182365278
    x12        c48         0.80638230776794662
    x12        c50         0.42214883314144402
    x12        c58         0.91366205550507718
    x12        c61         1.3063279194106792
    x12        c65         1.0487963815447061
    x12        c67         0.64691814292662164
    x12        c71         1.2848068244816004
    x12        c72         1.1234676291781318
    x12        c75         1.698123816144929
    x12        c103         0.69975420561791601
    x12        c123         0.25326646454171509
    x12        c132         1.7281435919213051
    x12        c143         1.7818222032732169
    x12        c147         1.9649403496812143
    x12        c161         0.99755922902620364
    x12        c163         1.5273932952722906
    x12        c167         0.80754495001649385
    x12        c179         0.58396064798577851
    x13        obj        3.0710655993544518
    x13        c14         1.062103252379444
    x13        c18         0.98919007486545307
    x13        c21         0.99348493801213966
    x13        c40         1.8930460856340787
    x13        c50         0.88789102175551327
    x13        c59         0.73063938674434858
    x13        c102         0.14353811920196158
    x13        c104         0.85042883344162967
    x13        c116         0.30176442755030564
    x13        c119         0.83176412434083924
    x13        c145         1.2670100204594186
    x13        c155         1.4996960371974615
    x13        c158         0.27630680503809568
    x13        c164         1.2364969625636899
    x13        c167         0.90423925161875784
    x13        c199         0.99032021383481206
    x14        obj        1.9923246111727837
    x14        c2         1.5288159615899612
    x14        c10         1.5850604310224914
    x14        c14         1.2337320630612871
    x14        c17         0.82258894245476133
    x14        c19         1.331965409219604
    x14        c22         1.108065391051398
    x14        c36         0.39677157211926506
    x14        c61         1.4651812744120165
    x14        c62         0.39734437275404233
    x14        c64         1.3596638801894851
    x14        c68         1.9853036523672651
    x14        c71         1.6208005724085037
    x14        c75         1.8324895889512709
    x14        c83         0.79182088059910338
    x14        c92         0.83620887310574032
    x14        c102         1.3302643886477419
    x14        c107         0.61350748510579278
    x14        c111         0.62035752565847191
    x14        c112         0.52221164248994867
    x14        c142         0.46099263959801573
    x14        c151         1.1518086396161265
    x14        c152         1.1872838876846143
    x14        c166         1.3929204418867154
    x14        c198         1.0626055411674609
    x15        obj        8.2547779908650352
    x15        c3         1.8198137394952014
    x15        c33         0.49371518165345496
    x15        c53         1.5986523559810264
    x15        c56         0.92780826035043595
    x15        c61         1.6515955027666749
    x15        c62         1.0884758762354132
    x15        c70         1.2308466070912838
    x15        c103         1.0176132161888098
    x15        c105         0.94582695262252314
    x15        c112         0.57873143333279253
    x15        c150         1.6576004430083926
    x15        c159         1.5049144650311115
    x15        c161         1.6470006202883205
    x15        c164         1.8232652926287061
    x15        c184         0.89905082770555811
    x15        c186         1.0094926163995213
    x15        c187         1.7337981349287934
    x15        c190         1.6419096009445087
    x15        c193         1.1701191903080161
    x16        obj        8.1539139461465382
    x16        c1         1.3871790075203438
    x16        c4         1.6423942807590231
    x16        c7         1.3847285172808155
    x16        c15         0.95941348815823435
    x16        c23         0.87047452367738598
    x16        c39         0.4847086247356367
    x16        c44         0.76107950778868283
    x16        c49         0.86647675335847452
    x16        c79         1.6370419776747123
    x16        c83         1.8641846602904268
    x16        c89         1.9649221875229936
    x16        c92         0.86991960014867031
    x16        c104         0.62747693753920686
    x16        c109         1.7608826557288833
    x16        c121         0.98296408655281764
    x16        c134         1.8460193318939149
    x16        c135         1.4608144856190399
    x16        c139         0.24443422176165014
    x16        c163         1.6003126789680218
    x16        c182         0.98937964033586556
    x17        obj        1.9312160834415739
    x17        c5         1.3520231852129512
    x17        c23         0.52016797413368687
    x17        c26         1.3935324073357234
    x17        c41         0.14294809990788299
    x17        c46         1.5563676418247803
    x17        c52         0.22256136455677233
    x17        c57         0.17645407947971947
    x17        c68         1.7626438307697769
    x17        c69         0.81489130570352575
    x17        c79         0.4148512536657043
    x17        c89         1.9316640913000442
    x17        c92         1.555634054440066
    x17        c118         1.9932450437346019
    x17        c135         1.9062755982117512
    x17        c143         1.2720434925369404
    x17        c157         1.9370758531072081
    x17        c160         0.94585991945210546
    x18        obj        6.6268921866295791
    x18        c28         0.6138538019914257
    x18        c29         0.81337461079452178
    x18        c35         0.41681108856896154
    x18        c45         1.7583223257637228
    x18        c60         1.0493296486156258
    x18        c62         0.43219072528475211
    x18        c64         0.59184659525296968
    x18        c65         1.3498142073681803
    x18        c76         1.9968681551232483
    x18        c103         1.5127080213232551
    x18        c108         1.3263537122903077
    x18        c110         0.15690639219352917
    x18        c123         1.5167234774552323
    x18        c124         1.0573751394637831
    x18        c152         1.7145825260948937
    x18        c170         0.97757035670118808
    x18        c188         0.77634420701371154
    x18        c193         0.50995853748155406
    x19        obj        9.519278424191862
    x19        c0         0.41931774262078325
    x19        c23         0.6754334338329766
    x19        c56         0.92667945168282273
    x19        c82         0.42755507487317224
    x19        c87         0.91998344558845724
    x19        c95         1.5758589062113117
    x19        c97         1.0805474372282904
    x19        c98         1.4323134617853395
    x19        c99         1.612998007823536
    x19        c111         1.1862581370093421
    x19        c112         0.22476823317770356
    x19        c118         1.3365710281808487
    x19        c126         1.7426719637612498
    x19        c128         0.38011447932984388
    x19        c129         1.8123870229803416
    x19        c136         0.27240133891032769
    x19        c150         1.5972481493657307
    x20        obj        2.4751656805305
    x20        c4         0.19269362269156898
    x20        c9         0.82425029084179791
    x20        c16         0.38239172174192948
    x20        c19         1.7237296994034919
    x20        c27         1.8594051662904767
    x20        c38         1.7610760244601775
    x20        c39         0.60506660635769149
    x20        c93         0.98607097202579275
    x20        c101         1.195213034184661
    x20        c103         1.3571121888675637
    x20        c109         1.0223307759259936
    x20        c135         0.75366908208012973
    x20        c148         1.802485331533022
    x20        c157         0.98294346631766694
    x20        c164         0.24110334021805643
    x20        c166         0.70912196351035339
    x20        c174         0.56074866350151997
    x20        c185         0.71306882516910053
    x20        c196         0.36504182482715086
    x21        obj        8.72209188994022
    x21        c0         0.38070155339871403
    x21        c48         1.8353201679233992
    x21        c55         1.0769022684832217
    x21        c75         1.5834796572117582
    x21        c84         0.21948605873452764
    x21        c89         0.117299452548496
    x21        c117         1.4102126493338303
    x21        c147         1.4538329163193564
    x21        c163         1.7204225936853128
    x21        c167         0.28437468474463773
    x22        obj        3.9548676441222175
    x22        c5         1.6357006422952141
    x22        c10         1.2153150226114595
    x22        c23         0.65658788807274815
    x22        c28         1.4137102904904444
    x22        c30         1.1801791119424616
    x22        c36         0.53890045919301
    x22        c57         1.1710964215570379
    x22        c80         0.16574370968998453
    x22        c86         0.63498905955460538
    x22        c116         0.47745074497498674
    x22        c117         0.8981825695188711
    x22        c121         0.39478072015853571
    x22        c134         0.65291238164809229
    x22        c137         0.69934101207682908
    x22        c149         1.1775241534128464
    x22        c152         1.3307942779770983
    x22        c153         0.70849311944776572
    x22        c158         0.46691553452709522
    x22        c184         0.2444945225209445
    x22        c198         1.4099728359250314
    x23        obj        2.6984378988912039
    x23        c17         1.8524315098231769
    x23        c19         1.3105435706060282
    x23        c32         0.75348715172818326
    x23        c47         1.6916949299336941
    x23        c67         0.14322245310495332
    x23        c71         1.7243787085473254
    x23        c74         0.56609872318592969
    x23        c110         1.8665278225320212
    x23        c111         0.54430645584772563
    x23        c114         0.67665821377406432
    x23        c117         1.3450203948186816
    x23        c120         1.1809175754597494
    x23        c129         0.53652856147334926
    x23        c132         0.3740932588039263
    x23        c134         0.42125600172339628
    x23        c144         0.39227111764751077
    x23        c148         1.9803310352694403
    x23        c151         0.38073241854175055
    x23        c164         0.64189154620047928
    x23        c181         0.28510750669678564
    x23        c184         1.1853144050864777
    x23        c191         1.2966274727096052
    x24        obj        4.7789113954025613
    x24        c36         1.1569396930889273
    x24        c38         0.5008251274465203
    x24        c54         1.3741565968474172
    x24        c57         0.34344270411865985
    x24        c59         0.50333503070300878
    x24        c61         0.14937013491956855
    x24        c66         1.9516942963325148
    x24        c68         0.4184302930792253
    x24        c72         1.0272105304861296
    x24        c80         1.5523689838032744
    x24        c82         0.41775760754008051
    x24        c93         1.9414106247582703
    x24        c103         0.47839567423481266
    x24        c109         1.3942630533298421
    x24        c119         0.95646432519239832
    x24        c122         0.91915788748647742
    x24        c163         0.77698644395213168
    x24        c170         1.5640755052966968
    x25        obj        8.8528637708671951
    x25        c24         1.0998282061554108
    x25        c37         1.4538795425333719
    x25        c42         1.8340208363156425
    x25        c48         0.34900419271494315
    x25        c56         0.49601264252896449
    x25        c66         1.5774769174832253
    x25        c69         1.5212070301410254
    x25        c75         1.1848713989701078
    x25        c82         0.53651618179844673
    x25        c90         1.9055151792184843
    x25        c92         0.47203388596300133
    x25        c101         1.4335754526870557
    x25        c105         1.6652090419292185
    x25        c111         1.7453331581976756
    x25        c117         1.8821666210152057
    x25        c124         0.15584602568314426
    x25        c129         0.49147737916738621
    x25        c132         1.5363243087450658
    x25        c133         1.6251287870297113
    x25        c158         1.0677995047426931
    x25        c162         1.3923348581246198
    x25        c174         0.24185320157197357
    x25        c186         1.4176841864485865
    x25        c191         1.0059424303601214
    x26        obj        5.360142790847588
    x26        c32         0.46456266006565583
    x26        c40         0.45454017741312558
    x26        c41         1.9497950233936414
    x26        c68         0.44189964724020114
    x26        c90         1.2987400202790735
    x26        c109         0.6434426347270642
    x26        c132         1.7817932836382644
    x26        c142         1.4392935092077817
    x26        c146         0.3999985181106479
    x26        c153         1.3967406474289492
    x26        c174         0.71652686681324429
    x26        c175         1.0130653555295204
    x26        c177         1.5386075956867764
    x26        c186         1.0570727012227243
    x26        c195         1.6369899732452975
    x27        obj        1.612335758949309
    x27        c12         1.152249856812831
    x27        c23         1.1243205028587491
    x27        c35         1.9805609625678231
    x27        c40         1.7078252330740888
    x27        c41         0.59109306941969009
    x27        c46         1.2783683267716401
    x27        c66         1.6090153202244759
    x27        c72         1.7586901968386572
    x27        c99         1.7257223380662388
    x27        c100         1.6612495995033731
    x27        c111         1.6686861572353171
    x27        c115         1.736402141804392
    x27        c146         0.33547784151686699
    x27        c149         1.0472416116113556
    x27        c157         1.9425771415638149
    x27        c161         0.21922772611352767
    x27        c163         1.3251328973588969
    x27        c172         0.15694680187342269
    x27        c175         0.23354449147448217
    x27        c178         1.1538151978348008
    x27        c188         0.85370112150605648
    x28        obj        1.098572702872548
    x28        c0         1.7945435220743533
    x28        c2         0.33001686893095772
    x28        c10         0.71379552298203119
    x28        c15         1.7998455350272895
    x28        c24         0.3716409612882513
    x28        c33         0.21048316081129384
    x28        c34         1.4620695682163338
    x28        c35         1.912464247921672
    x28        c53         0.73499246011155828
    x28        c62         0.46522827718002768
    x28        c63         0.98190240871688661
    x28        c67         0.76118728403530855
    x28        c103         1.8008632553365989
    x28        c108         1.0325369999277025
    x28        c111         1.7112387758787124
    x28        c113         1.9882351449523099
    x28        c126         0.48170836566729913
    x28        c144         0.53875586447573431
    x28        c145         1.5899186811427555
    x28        c162         1.3519565802095246
    x28        c167         1.9317417278486375
    x28        c168         1.4056153974747954
    x28        c190         1.0830695895329296
    x29        obj        4.4840243718223274
    x29        c23         0.66751380284132
    x29        c33         0.28281920774595792
    x29        c37         1.6747958257580882
    x29        c42         1.1049447247858968
    x29        c47         1.8363314647478832
    x29        c69         1.5003559787105283
    x29        c83         0.61184802787241677
    x29        c93         0.20181254473308383
    x29        c97         1.4145102396664657
    x29        c103         1.8682255323040715
    x29        c114         1.8122558622712823
    x29        c160         0.52988434987881694
    x29        c164         1.1148878377408311
    x29        c165         0.81107190410197616
    x29        c171         1.2374634228405987
    x29        c176         0.70629190635600136
    x29        c182         1.3088937130605194
    x29        c193         1.2725233741073811
    x30        obj        9.9079453409071974
    x30        c1         1.3033678061117311
    x30        c5         0.67401034440398311
    x30        c15         0.62318283733619262
    x30        c40         1.7194089701206703
    x30        c63         0.88678263087391951
    x30        c66         0.72226547356627013
    x30        c78         0.28148345646627393
    x30        c139         1.5317460292812433
    x30        c170         1.099683910037111
    x30        c189         1.7286837310020318
    x30        c190         0.54425765553513938
    x31        obj        2.0514129968866395
    x31        c0         0.37251512510272888
    x31        c42         0.39066620341312841
    x31        c43         0.28323028472380862
    x31        c46         1.2003308614814379
    x31        c52         0.39131130201907749
    x31        c70         1.4410936295482348
    x31        c74         1.3704631345256775
    x31        c83         1.3396409708730039
    x31        c89         0.67319014973380475
    x31        c95         1.3629445297860787
    x31        c119         0.12130005103715144
    x31        c132         0.22354470364301654
    x31        c137         0.58325126296943786
    x31        c140         0.81157628059999176
    x31        c178         0.75552846311039101
    x31        c185         0.37292128353150955
    x31        c193         1.3427736757374638
    x31        c194         1.2647363868130368
    x32        obj        2.1254753130946176
    x32        c2         1.1661571118336451
    x32        c37         0.74656376516170453
    x32        c39         0.16586970864530848
    x32        c52         0.89275777385335431
    x32        c58         0.89951590721970165
    x32        c70         0.31892391105179296
    x32        c94         0.40644470858312531
    x32        c103         1.5014926137402369
    x32        c112         1.7057719166649759
    x32        c120         0.31116127775442126
    x32        c129         1.7559890407624001
    x32        c134         0.17505641945693839
    x32        c138         0.49979524526434005
    x32        c140         1.7229103068734306
    x32        c142         0.15191637971622587
    x32        c158         1.222281824300631
    x32        c159         1.6528967495451912
    x32        c172         0.27057242508310697
    x32        c178         1.1374094792474576
    x32        c192         1.344184780461432
    x33        obj        3.8484658728325321
    x33        c11         1.5567389175893218
    x33        c30         1.5540122990995071
    x33        c31         1.9653051884806163
    x33        c32         1.8784196468478476
    x33        c34         1.3192445035428013
    x33        c65         0.92017562517684115
    x33        c71         0.43039459956287163
    x33        c112         1.012168287672303
    x33        c115         0.76372347562568044
    x33        c125         1.5954333809615306
    x33        c126         0.68462144308751027
    x33        c161         1.328958957671448
    x33        c170         0.42921035743007163
    x33        c187         0.40470830746048092
    x33        c192         0.11763538492621334
    x33        c198         0.20701929916406187
    x34        obj        3.630421733432295
    x34        c8         0.21555848879164602
    x34        c68         1.0790183870334227
    x34        c77         1.0416614817480889
    x34        c80         0.54570809765492245
    x34        c87         0.95228420757329379
    x34        c91         1.9244798814613109
    x34        c108         1.329454748464473
    x34        c117         0.42830296494462405
    x34        c118         1.0206365685698067
    x34        c121         0.31669648920195348
    x34        c138         1.758455516865095
    x34        c144         1.1490344965316188
    x34        c187         1.4521124979180624
    x34        c192         0.75742508582163492
    x34        c199         0.47846035807782139
    x35        obj        6.0380652392460634
    x35        c25         0.82425230591338494
    x35        c35         1.7437692796926505
    x35        c42         0.38753773529994662
    x35        c48         1.8858622826882374
    x35        c56         0.79406017081008051
    x35        c65         0.59251769487087602
    x35        c67         0.46637008058683482
    x35        c68         1.1172011438276708
    x35        c90         0.74883568937736811
    x35        c98         1.9931062644044955
    x35        c114         0.35211350466542179
    x35        c117         1.1770969152142254
    x35        c127         1.0528820553501912
    x35        c162         0.82880309713176181
    x35        c168         0.33260824681292078
    x35        c174         1.5439606617553241
    x35        c183         1.4949279190840319
    x36        obj        2.8408217560559157
    x36        c2         0.73411698012749382
    x36        c7         0.85761360655381369
    x36        c10         0.22729431052322502
    x36        c39         1.2119847423236989
    x36        c40         0.8332845403866721
    x36        c46         1.4374332634914626
    x36        c59         0.60741351931907972
    x36        c68         1.1060194303371234
    x36        c70         1.0623220882745603
    x36        c75         0.39704800119865324
    x36        c79         1.5053937083089217
    x36        c87         1.0449570552544636
    x36        c98         0.74657350541559586
    x36        c116         1.3943668500845652
    x36        c121         0.4328443605331308
    x36        c140         1.2939043543381179
    x36        c182         0.65226243504989934
    x36        c195         1.1814258657039165
    x37        obj        7.2757685088347683
    x37        c24         0.24518247910519428
    x37        c31         0.87096551654896226
    x37        c66         0.55087197067995219
    x37        c73         0.51714857017151994
    x37        c93         1.3675994381088079
    x37        c94         0.2316138914866038
    x37        c95         1.2322881167986581
    x37        c103         1.6586187637269358
    x37        c109         1.1525579734779379
    x37        c115         0.42520171872700785
    x37        c122         0.45632866040660691
    x37        c123         0.611450170640219
    x37        c125         1.6163546655719527
    x37        c127         0.44694896507642079
    x37        c134         1.881272534142707
    x37        c150         1.1919560708483929
    x37        c178         0.70478047225351492
    x37        c181         0.59988725760962136
    x37        c194         1.4872616699531838
    x37        c197         0.49153770391728702
    x38        obj        2.9447232933872383
    x38        c9         0.59181388259372447
    x38        c13         0.68093295247292851
    x38        c17         0.11978011964866876
    x38        c19         1.6516701296936633
    x38        c31         0.34448130174812963
    x38        c34         1.9834695685642625
    x38        c54         0.84283374477737694
    x38        c69         1.4192143428600523
    x38        c78         1.8679414554480365
    x38        c83         0.28110126039789263
    x38        c85         0.30581332710490572
    x38        c100         1.8904384750133922
    x38        c102         1.8010304479937982
    x38        c122         1.3411856317198763
    x38        c136         0.80218653119489436
    x38        c158         1.6236817923397409
    x38        c160         1.8152427698808218
    x38        c168         0.27461254396017976
    x38        c185         0.68980556540640492
    x39        obj        2.5147259199857537
    x39        c10         1.8650464309344104
    x39        c12         0.20849559672655146
    x39        c14         0.50972287733960508
    x39        c20         0.7354641252735461
    x39        c24         0.32426971168435476
    x39        c43         0.79815080937233263
    x39        c44         1.2073500677082538
    x39        c45         1.6318419517269942
    x39        c56         1.9299697421670514
    x39        c82         0.643177110497821
    x39        c84         1.435716044086385
    x39        c89         1.6192251887096651
    x39        c99         1.3880340062364842
    x39        c100         1.1081279969750164
    x39        c105         1.6864334570224295
    x39        c108         1.4794211640975181
    x39        c118         1.2821211676062891
    x39        c135         0.76510288998456799
    x39        c146         1.8735728210611318
    x39        c147         1.7647596778632901
    x39        c150         1.6769242654772709
    x39        c157         1.1008081330164567
    x39        c160         1.3419722707927653
    x39        c169         1.284765770555778
    x39        c175         0.16519481716960474
    x39        c187         1.4555386413830844
    x39        c191         0.31702457146922636
    x40        obj        5.0867394550954916
    x40        c11         0.17352249540569742
    x40        c37         0.54331161667744721
    x40        c42         0.28366131611153783
    x40        c46         0.38811329572333808
    x40        c57         1.1251918256823481
    x40        c58         0.83272739812423402
    x40        c64         0.58420916176417403
    x40        c94         0.42866763856217527
    x40        c97         0.95733795816712308
    x40        c113         1.0604291200206317
    x40        c126         1.176238780446613
    x40        c169         1.7479239876087509
    x40        c174         1.3155702834401957
    x40        c193         1.9546455831612544
    x40        c199         0.94538070893562642
    x41        obj        3.0295837140899335
    x41        c29         1.5883512913818363
    x41        c40         0.81349595913925732
    x41        c57         1.7000156893897163
    x41        c88         1.3883026376302865
    x41        c104         0.73730577020423516
    x41        c141         1.1511269818577408
    x41        c143         0.11791237334815688
    x41        c145         1.4356973524512247
    x41        c175         0.59371730031704129
    x41        c186         1.710308020760875
    x41        c190         0.86654634487285287
    x41        c193         1.6234780894172289
    x42        obj        3.1952004821222579
    x42        c5         0.32468396223862594
    x42        c47         1.3199436792180961
    x42        c55         0.52019517955970795
    x42        c62         1.0757883667158052
    x42        c84         1.41804914631145
    x42        c85         0.71910713013102412
    x42        c89         1.921296800293518
    x42        c97         1.3129010678376793
    x42        c112         1.773748147286776
    x42        c146         0.99053576418845179
    x42        c155         0.80752230348898102
    x42        c158         0.40303319347141253
    x42        c163         1.0946536073668214
    x42        c168         1.1072447135269456
    x42        c173         0.64992226972759437
    x42        c177         0.15574002614024055
    x42        c186         1.1008650803972897
    x42        c191         0.91629380816546768
    x43        obj        4.3981951245226529
    x43        c6         0.97428436390828455
    x43        c8         0.12638077327359165
    x43        c42         0.48823114485569208
    x43        c46         1.8716549689004012
    x43        c60         1.7913557412552708
    x43        c63         0.60431490645674724
    x43        c66         0.43900668538009868
    x43        c75         1.6460920888515305
    x43        c90         1.017241267874494
    x43        c99         1.4263458117617305
    x43        c163         0.15024451333049371
    x43        c176         0.68064272696804695
    x43        c178         1.8278797838263372
    x43        c187         0.40474743359243404
    x44        obj        2.6874093319043935
    x44        c6         0.22411435198444815
    x44        c23         0.56099048052852085
    x44        c27         1.6416693983868025
    x44        c37         1.0200768149655852
    x44        c42         1.9512166726134246
    x44        c66         1.7883283524576206
    x44        c95         1.1566058673910107
    x44        c107         1.6108192216827182
    x44        c108         0.72160747070702225
    x44        c110         0.5157416581362787
    x44        c114         1.9551554976323426
    x44        c121         0.60289112741935158
    x44        c123         1.4437466785701014
    x44        c145         0.5802345097915329
    x44        c156         1.4776641765840539
    x44        c164         0.50672879446629104
    x44        c172         1.1400048784381833
    x44        c175         1.8556977735042417
    x44        c177         1.4647650234097651
    x44        c184         0.76598668868754671
    x44        c197         1.1863288834635028
    x44        c199         1.6037458997740135
    x45        obj        9.7811590202504224
    x45        c2         0.72514585567236767
    x45        c22         0.46985800345681661
    x45        c30         1.0899604636329303
    x45        c35         0.32827499078794398
    x45        c43         1.7453028186583328
    x45        c49         1.2570678996638711
    x45        c62         1.166214026624089
    x45        c93         1.0209758860649156
    x45        c96         1.9734060110949214
    x45        c104         0.6001408453001893
    x45        c113         1.3403740675607307
    x45        c119         1.6687886755967121
    x45        c120         0.59644052918383161
    x45        c121         0.81789144795024338
    x45        c132         1.7274600395784945
    x45        c163         1.2107004580477447
    x45        c175         1.8952715581224993
    x45        c176         0.63117994593455318
    x45        c191         1.3214629706440062
    x45        c196         1.4541099669631425
    x46        obj        3.5440645094307159
    x46        c24         0.82911902373716073
    x46        c25         1.7473276307395402
    x46        c44         1.6594927526186436
    x46        c53         0.48437163676725226
    x46        c55         0.9702442520684893
    x46        c57         0.82114313244858184
    x46        c60         1.1611063852609773
    x46        c67         1.9607151028248846
    x46        c69         0.80373488029262297
    x46        c72         1.4210787180270577
    x46        c78         0.94852915813873062
    x46        c89         1.8574035103824753
    x46        c104         0.88085406366053776
    x46        c107         1.3773393722940526
    x46        c115         1.2944195930061553
    x46        c145         1.856843185157546
    x46        c146         1.2242388565821554
    x46        c150         0.23500200572517552
    x46        c159         0.54643193608655294
    x46        c161         0.65547875271597578
    x46        c164         1.2951122740303418
    x46        c186         0.22414904304728389
    x46        c195         1.9753862019918738
    x47        obj        3.3347823745909926
    x47        c11         0.25491197144733324
    x47        c40         0.17774194857787062
    x47        c55         0.66265454891459286
    x47        c57         0.53906373841354305
    x47        c63         0.53637119373204378
    x47        c68         0.8600359651487901
    x47        c70         1.9031523294235484
    x47        c72         0.87557253312526639
    x47        c80         0.31559411420759487
    x47        c83         0.27254435364259166
    x47        c85         0.7140846761415871
    x47        c94         1.4068047273070128
    x47        c108         0.31684642016498388
    x47        c114         1.5583719414661807
    x47        c117         1.6355734959874595
    x47        c152         1.6235549121450219
    x47        c175         0.11784575318603929
    x47        c198         0.52161664881475767
    x47        c199         1.1346342487579746
    x48        obj        1.0638369174557076
    x48        c32         0.82880617012093227
    x48        c42         0.70047927080843564
    x48        c52         0.71092872279940489
    x48        c78         1.2479165451502923
    x48        c79         1.7758134374312007
    x48        c91         1.9703021471747606
    x48        c93         1.2974548773304713
    x48        c101         1.6069050688460513
    x48        c116         0.42292400045248801
    x48        c125         0.29377299773354776
    x48        c134         1.1724955184076582
    x48        c138         1.4432639780766239
    x48        c143         0.94316931208495347
    x48        c157         1.374450590024844
    x48        c175         0.13043409207661869
    x49        obj        4.9142474958158937
    x49        c18         1.9763357523682801
    x49        c19         1.4542189063388042
    x49        c28         0.31233256664336062
    x49        c31         0.83716235101670011
    x49        c39         1.8891487865691181
    x49        c41         0.88129326479591685
    x49        c57         0.16465479193790811
    x49        c70         1.8988476340260827
    x49        c81         0.78123325368094731
    x49        c98         0.1603772300176993
    x49        c127         0.65011057879008516
    x49        c129         0.52961995867230294
    x49        c132         1.8890685749855527
    x49        c134         0.45548351065244941
    x49        c137         1.5732289766524976
    x49        c139         0.32435161978324167
    x49        c142         0.11652170797802604
    x49        c149         1.4865261267411607
    x49        c157         0.14626200043799356
    x49        c159         0.92028307180527791
    x49        c171         0.55458230101167172
    x49        c191         1.9123792698663624
    x50        obj        6.3063346471368007
    x50        c32         0.26215785576188344
    x50        c37         0.22579934063376
    x50        c49         1.4622588675778125
    x50        c57         0.86854831598347626
    x50        c62         0.18131876964338972
    x50        c65         0.68122601558563278
    x50        c78         0.16357538267122651
    x50        c100         1.5078064679540548
    x50        c108         1.5460432950584229
    x50        c112         1.722719045654163
    x50        c117         1.9977809040594932
    x50        c121         0.29219731444562957
    x50        c124         1.5342028152730396
    x50        c131         0.14196911432396753
    x50        c166         1.6764926566235587
    x50        c169         0.18370727201244899
    x50        c173         0.19651721850897885
    x50        c179         0.66438184980892967
    x50        c180         1.6702416550174581
    x50        c182         0.77653818490908633
    x50        c190         1.61065763834413
    x51        obj        9.3799809716085161
    x51        c10         0.95176336976722375
    x51        c12         0.57439978325786223
    x51        c24         1.1273649240355974
    x51        c27         1.0543639197056953
    x51        c30         1.9462074425941427
    x51        c41         1.9511679391803529
    x51        c47         0.57511445608288714
    x51        c67         1.9352590138873593
    x51        c81         1.2820323747647455
    x51        c96         1.3673844860599735
    x51        c103         1.4452136195349983
    x51        c107         0.99946726839249267
    x51        c117         0.97012106214660843
    x51        c136         1.7458593275763716
    x51        c138         1.2726434690030404
    x51        c148         1.0494588644732219
    x51        c154         0.96847794289213929
    x51        c157         1.0362363480786798
    x51        c167         0.88153082016937201
    x51        c177         1.7193694460400215
    x51        c181         1.2481239381357176
    x51        c184         1.7676551501456155
    x51        c190         0.90318818024632352
    x51        c192         0.8112366223396773
    x51        c196         0.9306623829437316
    x52        obj        7.4782906603324779
    x52        c9         1.3666944104939751
    x52        c23         0.5211755836423505
    x52        c79         0.99662218820449766
    x52        c84         1.6480552804026121
    x52        c108         0.60211703912848769
    x52        c113         0.94713183609028462
    x52        c131         0.4017461970533972
    x52        c135         0.10774682671655644
    x52        c143         1.2538307960336756
    x52        c145         1.8976387676975626
    x52        c155         0.64530213762814126
    x52        c159         0.5060874172104568
    x52        c182         0.36660844828482775
    x52        c188         0.51450111259189868
    x53        obj        9.1260324409559992
    x53        c13         0.8108669411553745
    x53        c29         0.4296045281826214
    x53        c43         1.0727961786141347
    x53        c74         0.1002166269094744
    x53        c85         1.0752885268306203
    x53        c98         0.84171709389876037
    x53        c111         0.34695449248179966
    x53        c135         0.20341469018194941
    x53        c144         0.27081780734083882
    x53        c154         1.2286714592769998
    x53        c155         1.7557035903409226
    x53        c156         1.6131328415690847
    x53        c172         0.48923168783190507
    x53        c187         1.306669179295773
    x53        c194         1.382897643634974
    x54        obj        2.9839797422655741
    x54        c23         1.7199660675395347
    x54        c41         1.4543554674912478
    x54        c49         0.43895186520999496
    x54        c61         0.61549746215646806
    x54        c66         1.3929585234499973
    x54        c85         1.6339494978922158
    x54        c89         0.93407113321584123
    x54        c113         0.90746807530005813
    x54        c114         1.5991953524290548
    x54        c119         0.11943603044129161
    x54        c149         0.16468238370947852
    x54        c162         1.6773985631567945
    x54        c194         0.17870039276486621
    x54        c198         0.26274332720641713
    x55        obj        6.3616557641427462
    x55        c23         1.5123224041833803
    x55        c65         1.5064332850669198
    x55        c84         0.30799958697011087
    x55        c89         0.47303302748024845
    x55        c110         1.4811549248010134
    x55        c114         1.9113526163160686
    x55        c139         1.5078675801264148
    x55        c140         1.1955141764539319
    x55        c150         0.92669318298413206
    x55        c153         0.1823191377444226
    x55        c161         0.45032844036524033
    x55        c176         0.91058072242825294
    x55        c177         0.37896734023035172
    x55        c178         0.54469209180646538
    x55        c183         0.22371553012405812
    x55        c185         0.5710878891907728
    x55        c191         1.4452661386687933
    x55        c199         1.1475860047754187
    x56        obj        1.4126204077446454
    x56        c11         0.79734745027331577
    x56        c12         1.6916914631375271
    x56        c19         1.5544253750257653
    x56        c23         1.6766199035718392
    x56        c51         0.35299311370467712
    x56        c87         0.3115195142134547
    x56        c92         1.9253446320522882
    x56        c94         0.76089377286861792
    x56        c125         0.87870481453895244
    x56        c133         1.1631826290597578
    x56        c137         1.0251498332758238
    x56        c139         1.8915146541930743
    x56        c143         1.005100806507933
    x56        c147         0.60559521631093416
    x56        c148         0.14923427855406513
    x56        c184         0.51489413163571018
    x56        c188         0.80381407517100234
    x57        obj        3.6309025963131698
    x57        c11         0.872583893568456
    x57        c12         0.22821929963940685
    x57        c30         1.1166738111914294
    x57        c32         1.5084648345037011
    x57        c33         1.23472127983058
    x57        c47         0.90933177942539412
    x57        c68         0.52467412045163753
    x57        c101         1.431667116049588
    x57        c110         1.7086664196336134
    x57        c112         0.25644388253954298
    x57        c131         1.2441427996281531
    x57        c142         1.5366051901435795
    x57        c151         0.22903671666139117
    x57        c154         1.231447229209323
    x57        c168         1.1233515347984049
    x57        c183         0.83615082345095837
    x57        c186         1.6067744721915536
    x58        obj        4.9402508233077782
    x58        c3         1.0288146070478368
    x58        c20         0.66822101355230501
    x58        c27         1.0051308560302172
    x58        c29         1.7390754234706058
    x58        c50         0.29442501187258707
    x58        c54         0.23951050670503954
    x58        c60         1.0095600729450804
    x58        c68         0.64218963238384108
    x58        c83         1.445141656011423
    x58        c93         0.90267071222647599
    x58        c105         1.0206530509186387
    x58        c107         0.65984717791338277
    x58        c120         0.80743605323003431
    x58        c127         0.30650605015129351
    x58        c141         0.35743532361162045
    x58        c143         1.4935734097724529
    x58        c173         1.2969522767142116
    x58        c178         1.7323981964258957
    x58        c186         0.17544095874833954
    x58        c189         1.9626616778308437
    x58        c195         1.9236916743683905
    x58        c196         0.40616176544812033
    x58        c198         0.20163178247023744
    x59        obj        5.600153266876684
    x59        c1         0.69281945332427752
    x59        c18         0.85646527593723665
    x59        c25         0.75660794700388123
    x59        c29         0.48931132384312748
    x59        c30         0.12179625358299294
    x59        c43         0.52060434603216454
    x59        c49         1.4486888144239662
    x59        c54         1.7670561142618531
    x59        c87         0.71564258886578846
    x59        c91         1.5129100003005347
    x59        c99         0.3168751227769826
    x59        c100         0.89463878241528094
    x59        c102         1.9219490330494262
    x59        c123         1.3732482971720701
    x59        c139         1.1373136331640026
    x59        c156         0.40514641365350168
    x59        c160         0.10197898576082845
    x59        c164         1.2472795965221568
    x59        c170         1.8268224047657473
    x59        c174         0.16223595201770474
    x60        obj        2.2934789592312743
    x60        c0         0.53390707505060286
    x60        c7         1.6536155458573349
    x60        c31         0.48669721621350737
    x60        c38         0.85705425743514485
    x60        c39         0.99820046493583148
    x60        c57         1.0358624892891768
    x60        c61         1.6265956877211774
    x60        c63         0.59364664725420713
    x60        c79         0.65860929828099091
    x60        c88         0.8263805994384632
    x60        c89         0.59539771682100362
    x60        c92         1.7624791721476709
    x60        c100         0.91608878973562069
    x60        c105         0.76900156248382057
    x60        c108         1.9464919846290978
    x60        c120         1.0954916089364723
    x60        c124         1.5902048942714633
    x60        c147         0.67216566543496903
    x60        c180         1.8944390980474881
    x60        c195         0.69637358077834577
    x61        obj        8.7024584929756159
    x61        c0         0.75037516000494231
    x61        c12         1.2120805563094152
    x61        c16         1.288751926213165
    x61        c28         0.34326636269031585
    x61        c44         0.96445346705951596
    x61        c60         1.3162390011713234
    x61        c69         0.95983902123505715
    x61        c73         0.25277585126711521
    x61        c77         1.2463820749837853
    x61        c82         1.2216602145682249
    x61        c85         0.51318791578935008
    x61        c88         1.4009502810611056
    x61        c109         1.9162596521312709
    x61        c127         0.3057253004386834
    x61        c141         1.22778341182216
    x61        c160         1.85786288321909
    x61        c184         1.6521215007699348
    x61        c190         1.8408483737868633
    x62        obj        9.8716240049551107
    x62        c0         1.6241345158611726
    x62        c2         0.16857425222189165
    x62        c3         0.50168092837192679
    x62        c34         1.9335830604354842
    x62        c37         0.50293493223585339
    x62        c39         1.2006791247058539
    x62        c42         0.59736086539070266
    x62        c51         1.59078601340833
    x62        c66         0.84767244089983329
    x62        c80         1.6601599464033145
    x62        c100         1.7189062564349993
    x62        c105         1.1091326880745087
    x62        c107         0.12400441150212842
    x62        c120         1.0523040812365927
    x62        c122         1.0569019777970932
    x62        c125         0.34292848706404566
    x62        c149         1.5736109291560023
    x62        c153         1.8314409136607386
    x62        c162         1.8432121686404177
    x62        c169         1.1038900267903602
    x62        c182         1.0155122608421121
    x62        c199         0.11334613343292121
    x63        obj        3.7266616771523391
    x63        c2         0.18065439433671299
    x63        c6         1.1160191900267999
    x63        c24         1.5812529172304293
    x63        c32         1.5820912121804651
    x63        c73         1.2508983389398129
    x63        c83         0.25817878528446669
    x63        c99         1.9596309275324602
    x63        c102         1.0987947523513475
    x63        c109         1.1382795381432991
    x63        c111         0.53605777593986925
    x63        c116         0.29637610247852864
    x63        c117         0.78461699336778745
    x63        c118         0.69510093316982013
    x63        c125         0.85557659498140148
    x63        c144         0.15889624448451006
    x63        c166         0.41155116318891771
    x63        c171         1.7267288214931547
    x63        c181         0.37783277784232294
    x63        c191         0.87881906579553781
    x64        obj        7.7123252601939543
    x64        c45         0.16775078085819595
    x64        c55         0.59503180258058486
    x64        c73         1.4994252800960899
    x64        c75         1.9946219244589791
    x64        c89         0.44465997124817547
    x64        c106         1.2336350139456151
    x64        c134         0.79854766492669149
    x64        c137         0.84900416648801913
    x64        c152         0.33558796473015662
    x64        c173         1.6373454535672591
    x64        c183         1.5978940124192114
    x64        c195         0.18465417197729106
    x64        c199         1.2490178547152047
    x65        obj        7.3505634132930879
    x65        c2         0.43803286949401365
    x65        c10         1.5784376660091852
    x65        c12         0.39309428556649484
    x65        c15         1.8798120625391388
    x65        c22         1.9817401544141258
    x65        c28         0.77961996904533903
    x65        c35         1.4436274223106274
    x65        c47         1.6864315071754019
    x65        c67         1.1362912687109654
    x65        c119         0.91947773430980961
    x65        c123         0.6447560098872368
    x65        c130         0.84611227333919725
    x65        c137         0.48607876670384254
    x65        c146         1.4279199227910735
    x65        c157         1.3521143890598319
    x65        c160         1.8852560228356168
    x65        c165         1.2270539789674006
    x65        c170         0.69395022796750416
    x65        c180         1.5783649570415168
    x65        c189         1.8313414690182523
    x65        c192         0.80833376791202849
    x65        c193         0.89301562167189097
    x66        obj        2.1874856416667163
    x66        c0         1.9744492536875531
    x66        c4         0.5046686511616284
    x66        c7         0.46332256953932127
    x66        c45         1.9370646844363486
    x66        c68         1.5509334754403088
    x66        c80         1.0581942124118253
    x66        c81         1.9775140593715406
    x66        c90         0.67147491829183636
    x66        c92         1.5501268149218645
    x66        c108         1.1388477625534206
    x66        c109         0.97099791609977315
    x66        c111         0.77160586116475471
    x66        c118         0.19781701199025004
    x66        c125         1.1133956370877041
    x66        c144         1.5528708036344234
    x66        c147         1.0789902067670298
    x66        c167         0.30344909790628727
    x66        c171         0.49959797594373556
    x66        c172         1.93433029422008
    x66        c174         0.38286541759942427
    x66        c191         0.62432632087876894
    x66        c194         0.83500153051774983
    x66        c197         0.46224014829689208
    x66        c198         1.2162526940224756
    x67        obj        2.6955664345598058
    x67        c10         0.80394487428004191
    x67        c17         1.8233740912502647
    x67        c19         1.4180087179947951
    x67        c34         0.10787451743032733
    x67        c53         1.5446994628675501
    x67        c90         1.0133210743725451
    x67        c96         0.89755544330047299
    x67        c110         0.91799299518460564
    x67        c132         0.35015167769124589
    x67        c189         1.5559787255819748
    x67        c190         0.42485497195035349
    x68        obj        2.3425110163936584
    x68        c4         1.3652481416848723
    x68        c17         0.98830656162263242
    x68        c38         1.2672482463263388
    x68        c40         1.6551580190144322
    x68        c57         1.8534935873525573
    x68        c82         1.5614161019996551
    x68        c91         0.32180923631068487
    x68        c99         1.0941979282088388
    x68        c101         0.92593073804555648
    x68        c117         0.1717216119939789
    x68        c123         0.85738823032371225
    x68        c142         1.4581431654905599
    x68        c159         0.61777308439569634
    x68        c180         0.58021285130608491
    x68        c185         1.2353032595021811
    x69        obj        9.0019394425516825
    x69        c4         1.422314201718154
    x69        c11         0.12546297984448512
    x69        c42         1.6340390282737258
    x69        c49         0.67270008162269457
    x69        c56         0.55619402449035293
    x69        c62         1.2299249665712824
    x69        c64         1.1193953177220839
    x69        c78         0.54621846299067267
    x69        c84         1.1542977181951326
    x69        c90         0.69870028370906223
    x69        c92         1.4442070348812317
    x69        c95         0.99301942320803982
    x69        c117         1.0776714770276654
    x69        c119         1.0287920920311142
    x69        c128         1.4541406190314552
    x69        c142         1.819468964561761
    x69        c143         0.69311768157649056
    x69        c145         0.79956777692781034
    x69        c173         1.6816588793164551
    x69        c177         0.21906105594557224
    x70        obj        5.0192758076396267
    x70        c0         1.7490690461813962
    x70        c16         0.21729797107452789
    x70        c17         1.2706352608539255
    x70        c50         0.16647328305427894
    x70        c72         0.70815963850894448
    x70        c85         1.8128345466348614
    x70        c86         1.6026769523944118
    x70        c95         0.29983768373815367
    x70        c98         1.1490116709790181
    x70        c126         1.5801646504865028
    x70        c131         1.1529415824645386
    x70        c135         0.46090016938461509
    x70        c147         1.1506914229931413
    x70        c155         1.8244225513615446
    x70        c171         0.46843808900135875
    x70        c176         1.4671020770752561
    x70        c179         0.33283756597734215
    x70        c181         0.47893334152432621
    x71        obj        4.3474393186278313
    x71        c1         0.12382923901075094
    x71        c5         0.92832128856069474
    x71        c12         0.74462369435692166
    x71        c13         0.52121711942251292
    x71        c17         0.46945969214744876
    x71        c32         0.75309211115232644
    x71        c59         0.33775754171439382
    x71        c70         1.4706838333580918
    x71        c100         0.86809499247868904
    x71        c109         1.1554422362441674
    x71        c112         0.12368312040113615
    x71        c151         0.15466376752289693
    x71        c163         1.6574172967296807
    x71        c188         0.15454873114385181
    x71        c191         0.14880088984415904
    x72        obj        4.5027200842384705
    x72        c6         0.70304621471037243
    x72        c12         0.65021990644608962
    x72        c15         0.49292512866312965
    x72        c24         1.458721371475604
    x72        c33         0.42927984358666493
    x72        c34         1.2364949279008679
    x72        c37         0.87539558253615846
    x72        c38         0.83908925022540393
    x72        c41         1.1803150334099075
    x72        c46         0.1800597495011001
    x72        c48         0.59134829691236535
    x72        c58         0.12518529630042044
    x72        c77         0.5739635413470392
    x72        c79         1.2251702927003461
    x72        c86         1.2423123360987058
    x72        c96         0.18470861213104101
    x72        c98         0.98364947805660452
    x72        c109         0.10124060881295849
    x72        c112         1.1122995359655385
    x72        c125         1.5277221275337931
    x72        c128         1.7482703012848033
    x72        c138         1.5770471069914875
    x72        c144         1.0152675858325486
    x72        c148         1.4374122052899507
    x72        c156         1.592845195684915
    x72        c162         1.1113418715632111
    x72        c170         0.19895726783664591
    x72        c172         1.2960022710582075
    x72        c185         0.27862067510024036
    x72        c195         1.0300162884926489
    x72        c196         0.93335210388620793
    x72        c197         1.0713514153479229
    x73        obj        9.285943513355118
    x73        c10         1.7817827832095752
    x73        c31         1.9131379506715551
    x73        c84         0.67064954633535934
    x73        c91         1.3093880670590408
    x73        c98         0.26549753865753062
    x73        c110         1.7348477106252256
    x73        c124         0.20415315966726952
    x73        c132         1.5602926516742899
    x73        c137         0.51720161473377313
    x73        c149         0.42479122782567735
    x73        c162         1.4766860131050172
    x73        c176         1.7903334513074542
    x73        c196         0.22363260432473303
    x74        obj        3.0043091097800483
    x74        c11         1.3137933129454233
    x74        c15         1.9977390387839067
    x74        c41         1.8391680097195786
    x74        c45         1.2278672308270155
    x74        c49         0.65459507198356004
    x74        c50         1.680307068658266
    x74        c60         1.8084364059774143
    x74        c61         1.6922146611432436
    x74        c81         1.8821399326235551
    x74        c82         0.41731128052503075
    x74        c84         0.88833689234815494
    x74        c111         1.3737123746971818
    x74        c114         0.92522715745175133
    x74        c120         1.2230170666881834
    x74        c130         1.5975729374250318
    x74        c131         0.98194214451209472
    x74        c135         1.7272788307342546
    x74        c149         1.1410220492975705
    x74        c155         0.84892523577740964
    x74        c162         1.3873649781504678
    x74        c173         1.4667520997850731
    x74        c175         0.68571341192388569
    x74        c178         1.6098551645957626
    x74        c192         1.5504621257616977
    x75        obj        6.117908707512278
    x75        c22         0.16148340212419321
    x75        c56         0.57699511275078119
    x75        c65         0.47514759581629096
    x75        c66         0.81389331683135546
    x75        c97         0.9250660852397441
    x75        c136         0.86911212886069678
    x75        c143         1.7884156160663403
    x75        c163         1.8028256124491635
    x75        c166         0.39528839291519979
    x75        c175         1.8383296922415593
    x75        c178         1.2290263612931416
    x75        c182         1.4384544753577446
    x75        c197         0.98131156660012908
    x75        c198         1.3779957831948506
    x76        obj        9.0385496682710205
    x76        c5         0.35688062328211612
    x76        c27         1.4881640441148312
    x76        c53         1.3945976903668997
    x76        c55         0.35059112591816066
    x76        c59         1.5653850824779281
    x76        c69         0.89992619646179273
    x76        c95         1.669159038973397
    x76        c101         0.9520669451990772
    x76        c112         1.1788038888499306
    x76        c129         0.44460885683126128
    x76        c135         1.5945857913717814
    x76        c141         1.6709213980678612
    x76        c159         0.35240657063854308
    x76        c167         0.76819643752821121
    x76        c168         0.23827898719555246
    x76        c176         0.11024449154715231
    x76        c188         0.94654098937264119
    x77        obj        5.1534469338402751
    x77        c1         1.9577807305597106
    x77        c32         0.36971396545143043
    x77        c72         1.4403564322433158
    x77        c80         0.51948993529654119
    x77        c82         1.271242455527176
    x77        c100         0.80670410429827488
    x77        c110         0.50447715010133776
    x77        c123         0.77151747698668527
    x77        c124         0.37378459561456456
    x77        c144         0.10944123449432173
    x77        c148         1.7505647861268265
    x77        c170         0.97160699331261968
    x77        c180         1.730983063016962
    x77        c181         1.9018600042190466
    x77        c183         1.243691894460121
    x78        obj        8.218132397980602
    x78        c9         1.2414721605916084
    x78        c13         0.46937263194358692
    x78        c45         1.1045721318760258
    x78        c58         1.8182674442825058
    x78        c60         0.27797310876852255
    x78        c73         1.6819125220861471
    x78        c82         1.1468924955726296
    x78        c87         1.2539853715039315
    x78        c88         1.6108247899697157
    x78        c98         1.8403688690208462
    x78        c99         1.8868943495564028
    x78        c108         1.6465681400026979
    x78        c129         0.73624834120011995
    x78        c138         0.17593980447072494
    x78        c155         1.674995984305611
    x78        c156         0.28477902038661729
    x78        c167         1.2332667431819653
    x78        c170         0.89541566641323422
    x78        c176         1.6257507126787554
    x78        c191         0.22101779795143683
    x78        c193         1.374061782114343
    x79        obj        5.2526983244441814
    x79        c8         0.91044657280582897
    x79        c9         0.81553990603509696
    x79        c20         1.7849021594703074
    x79        c23         1.1942417126477445
    x79        c34         0.33210812119474054
    x79        c58         1.0223160485637315
    x79        c62         0.68028878959617145
    x79        c63         1.812262790268901
    x79        c77         1.1663780293570483
    x79        c101         0.66818954169452105
    x79        c107         0.10694592970440703
    x79        c121         1.9705841696009883
    x79        c123         1.8670412073219929
    x79        c124         1.3944643063119735
    x79        c131         1.558676190560822
    x79        c139         1.3051398966910652
    x79        c148         1.3422680402719802
    x79        c156         1.5705199342288652
    x79        c164         0.76016238580166462
    x79        c165         1.292811464774799
    x79        c166         0.57033673652666406
    x79        c173         1.8588763573522511
    x79        c191         0.36448378760209621
    x80        obj        1.3460110714947595
    x80        c4         1.2198994045607094
    x80        c6         0.52938478595365035
    x80        c18         0.41522281809059258
    x80        c23         0.42422831532308558
    x80        c46         0.72957112306887018
    x80        c50         1.7439228022030406
    x80        c65         1.0663925221568638
    x80        c89         0.45371589764393694
    x80        c99         1.0763798691906525
    x80        c103         0.19605301692028593
    x80        c122         1.3203820871070358
    x80        c142         0.33865857504820779
    x80        c154         1.5236877129358424
    x80        c174         1.8696854991840124
    x80        c182         1.4859856423014797
    x80        c188         0.89726744592019636
    x81        obj        5.417288312034608
    x81        c1         0.36517091041533967
    x81        c8         1.4783535185542149
    x81        c62         1.0449194114767144
    x81        c66         1.1122358223136106
    x81        c75         1.2824712015637265
    x81        c96         1.1149070254567888
    x81        c99         1.2062356076785097
    x81        c106         1.9436100174267432
    x81        c115         1.5831576915659007
    x81        c122         0.84266663785818319
    x81        c123         1.3050512604646902
    x81        c126         0.96966477979179588
    x81        c142         1.0514205619131693
    x81        c152         1.5060604679021328
    x81        c159         1.5693140609953602
    x81        c167         0.44012287224907631
    x82        obj        2.1041761043356253
    x82        c21         0.13632948265763786
    x82        c31         1.6605736673148694
    x82        c33         1.1362344200493018
    x82        c67         0.84144937011322329
    x82        c73         1.6948983304406946
    x82        c86         0.11843121928434121
    x82        c87         0.53357448953091891
    x82        c92         0.8576196382539143
    x82        c105         0.38297407580974852
    x82        c121         0.35323943548936843
    x82        c137         1.3498111160232791
    x82        c141         0.41157073957178258
    x82        c147         1.4209366629962905
    x82        c156         1.9524098475912575
    x82        c168         1.4192221798544566
    x82        c171         0.8866867984046567
    x82        c184         0.546954271533863
    x82        c194         1.5998308521737681
    x83        obj        1.7843877650468651
    x83        c1         0.51328743239729824
    x83        c6         0.53103722455380142
    x83        c7         0.60637686799308133
    x83        c23         0.86260282130785104
    x83        c37         1.4401817926936198
    x83        c41         1.0072788079193553
    x83        c51         1.4863967485879019
    x83        c72         1.5107616652845954
    x83        c84         0.8860026471659721
    x83        c94         1.3527841644383372
    x83        c101         1.7020262371309669
    x83        c109         1.3198765971865498
    x83        c183         1.539225994474217
    x83        c187         1.053250965613086
    x83        c194         0.88195688504980818
    x84        obj        7.6617516704775683
    x84        c3         0.7369213718668709
    x84        c9         1.7076799670394105
    x84        c20         0.72865059974465718
    x84        c29         1.9278998503997524
    x84        c34         0.39709217921310636
    x84        c37         0.61815977092847108
    x84        c57         1.1551333145950282
    x84        c61         0.87600306334464328
    x84        c71         0.50954269703277988
    x84        c72         1.2571419597520224
    x84        c88         0.8592774700895397
    x84        c123         1.1295476292093984
    x84        c134         1.4599904525944061
    x84        c136         1.8829462757932787
    x84        c168         0.26324998514330039
    x84        c197         0.1208148466057596
    x85        obj        4.0598646165586505
    x85        c12         1.0126412578719468
    x85        c56         1.841669464118368
    x85        c63         0.99373075317332626
    x85        c78         1.4290296632867419
    x85        c123         1.5623187749837217
    x85        c135         1.4623459578905325
    x85        c164         1.9343591189628409
    x85        c170         0.36686289401564298
    x85        c176         1.9341530963101037
    x85        c184         0.55424025169130309
    x85        c198         0.70722810566334171
    x86        obj        4.794913104661207
    x86        c15         0.84902776108146627
    x86        c30         0.40866220232103978
    x86        c31         0.74212328658659454
    x86        c33         1.4091067575564662
    x86        c35         0.13857732544854454
    x86        c38         1.6198048754389887
    x86        c40         0.77430774815055148
    x86        c50         1.2851631357992221
    x86        c93         1.531132787148664
    x86        c102         0.32025334499680258
    x86        c124         0.73364472520205937
    x86        c125         1.1662470194504986
    x86        c128         1.1465222534221604
    x86        c142         1.6069380070937918
    x86        c153         0.43651120013670208
    x86        c155         1.6385793929417631
    x86        c166         0.21855047601743172
    x86        c198         0.16302065427440909
    x86        c199         1.8997389429852414
    x87        obj        3.2044208146140276
    x87        c0         1.9481956884289098
    x87        c6         0.71742938072140949
    x87        c8         1.6619741008468525
    x87        c39         1.9489024560930914
    x87        c40         0.13681651425471036
    x87        c46         0.36501552362535949
    x87        c51         1.2529088352228817
    x87        c57         1.6493001722858416
    x87        c73         1.1356154128218467
    x87        c79         1.0424881866117846
    x87        c82         1.4418091213204354
    x87        c108         1.3669061031271714
    x87        c126         1.61774941883074
    x87        c129         1.1399388866581723
    x87        c138         0.54272687195670632
    x87        c151         0.42664120762239366
    x87        c176         1.6603456671615944
    x87        c184         1.368531620713427
    x87        c187         0.65488648143545147
    x87        c189         0.38701465011220437
    x88        obj        5.4937359525865688
    x88        c4         0.83901786840811599
    x88        c23         0.89224913439322928
    x88        c25         0.85420849659362585
    x88        c36         1.3030301622500027
    x88        c50         0.48987215991207589
    x88        c58         1.6614483802670217
    x88        c60         1.9147985071356923
    x88        c92         0.84065491110533974
    x88        c108         0.91341679997712277
    x88        c124         0.33064074697270684
    x88        c138         1.0487128436981079
    x88        c165         1.3196639656923839
    x88        c179         1.0704145519033246
    x88        c188         1.6927175284652298
    x89        obj        1.8574278720426673
    x89        c5         1.1509942205456529
    x89        c10         1.0292400595925626
    x89        c14         0.74154714818026712
    x89        c35         1.6003015699688483
    x89        c39         0.70849595289153855
    x89        c54         0.15078478457559782
    x89        c69         1.8602360254403736
    x89        c78         0.28835161937630116
    x89        c107         0.80238841223602697
    x89        c138         0.84903642951391811
    x89        c153         1.1544979212727662
    x89        c171         1.0718596321342713
    x89        c176         0.33948086173217906
    x89        c180         1.217770325347548
    x89        c187         0.73337633636191879
    x90        obj        7.3885663265139225
    x90        c3         1.1843236903357062
    x90        c4         1.3169695075041365
    x90        c16         0.83906257087780955
    x90        c28         1.6817068016561934
    x90        c34         1.6126912670839435
    x90        c39         0.11097792883866625
    x90        c40         0.23536197354290589
    x90        c59         1.5821200304965375
    x90        c61         0.19506407102752166
    x90        c71         0.28284737127027015
    x90        c78         0.59502678838630974
    x90        c85         1.9120389766950512
    x90        c87         0.32445147328351576
    x90        c116         0.81306732492774314
    x90        c127         0.65338396639818008
    x90        c128         1.4873934768072588
    x90        c139         1.7982162433686284
    x90        c141         0.86046161079909589
    x90        c159         1.8715931476208629
    x90        c162         1.3954189388857323
    x90        c167         0.70403681350888803
    x90        c169         0.14904554099991008
    x90        c171         0.87944883869986046
    x90        c179         0.35725848127617177
    x90        c191         1.4827207188546092
    x91        obj        5.5509953544138639
    x91        c11         0.61516315171257474
    x91        c17         0.63265023297849221
    x91        c20         0.67623719012390748
    x91        c33         1.9552693452069294
    x91        c46         0.37201722495770406
    x91        c58         1.1334300985053483
    x91        c72         0.25850990327194501
    x91        c104         0.64950978992616992
    x91        c107         0.7136861053322624
    x91        c108         1.8957798964232067
    x91        c125         1.8158516471739319
    x91        c132         1.9313623387151722
    x91        c134         0.37810992140442101
    x91        c136         0.79498606684349438
    x91        c141         1.446268768248973
    x91        c142         1.331750391394632
    x91        c144         1.6905321289564674
    x91        c149         0.13775686495396749
    x91        c162         1.0427057948026783
    x91        c185         1.8172319071335372
    x91        c191         1.0646531739030332
    x92        obj        6.3168238977984723
    x92        c6         0.314731237813622
    x92        c11         1.7738887486403878
    x92        c15         1.8153626330155241
    x92        c20         0.60598359931080004
    x92        c36         0.21140626293209705
    x92        c38         0.67758858604473271
    x92        c39         1.0639540800992879
    x92        c43         0.39356546737181564
    x92        c55         1.4768897709538777
    x92        c81         0.37390183478484418
    x92        c92         1.5098336108840005
    x92        c96         0.87761782189954329
    x92        c102         1.5710381352875171
    x92        c114         1.9260520716824054
    x92        c116         0.63394898223239349
    x92        c118         0.33872389093232619
    x92        c142         0.58624595030868165
    x92        c169         1.1500754698740914
    x92        c179         0.59486562004905585
    x92        c185         1.8026630929024805
    x93        obj        2.5623546484131987
    x93        c12         1.0387628307991277
    x93        c22         1.4210184278607414
    x93        c38         0.45124757210503252
    x93        c53         1.6774908292256272
    x93        c71         1.6614344505085699
    x93        c91         1.5708254043964953
    x93        c101         0.99336525888901472
    x93        c107         0.94290647051870424
    x93        c123         1.4812641186214841
    x93        c137         0.87584846417324258
    x93        c155         0.79310852903774531
    x94        obj        4.4409493966691418
    x94        c15         0.40703945765355898
    x94        c24         0.83223848134841694
    x94        c29         0.19947672515081746
    x94        c64         1.1775722186504762
    x94        c89         1.0754889495124083
    x94        c127         1.7952898052072834
    x94        c132         1.1457690148760797
    x94        c140         0.23662232870472494
    x94        c153         1.2617417332564427
    x94        c173         0.74257488296410978
    x94        c182         1.1376713946308215
    x94        c184         1.6448471023922875
    x94        c191         1.0792761561845978
    x94        c192         1.823336248269289
    x94        c194         1.4707824712229904
    x95        obj        5.6730767112553115
    x95        c12         1.6138354607235248
    x95        c18         0.80853246104365395
    x95        c20         1.9786354152370851
    x95        c34         1.4332415993527043
    x95        c41         0.73452877508884795
    x95        c43         1.6660659260991482
    x95        c55         1.3898234611931568
    x95        c69         1.1747245928470957
    x95        c76         0.28523357845695146
    x95        c81         0.83172999755423638
    x95        c95         0.45138985948260923
    x95        c113         0.61264614879514101
    x95        c129         1.111447306252735
    x95        c137         1.2817744112103004
    x95        c141         1.5686249925292843
    x95        c166         1.6379467344717231
    x95        c182         1.1574154774420931
    x95        c193         1.6078234299795346
    x96        obj        5.3002596761807288
    x96        c15         1.7262380550329623
    x96        c17         0.54729153290700094
    x96        c24         1.0049149762317153
    x96        c29         0.20885996594455708
    x96        c39         1.4103727574670759
    x96        c48         1.6195316021772275
    x96        c53         1.5309923279924922
    x96        c55         0.13882072668999965
    x96        c61         1.4819316353966354
    x96        c81         0.45582545016748544
    x96        c84         0.72751696867257298
    x96        c91         1.1695782317600476
    x96        c95         0.58993751092215452
    x96        c111         0.6346391131549195
    x96        c121         1.834728437006319
    x96        c127         0.67379560815466399
    x96        c145         1.8830155739580967
    x96        c151         0.70487729560006385
    x96        c156         0.35237603067806267
    x96        c166         1.3524948893053632
    x97        obj        4.3678753208756387
    x97        c1         1.705608371066113
    x97        c13         0.3386849189026977
    x97        c27         1.7616684520327148
    x97        c31         0.15172534944951926
    x97        c62         0.60659024784260229
    x97        c81         1.8568328164567851
    x97        c84         1.2748018598572093
    x97        c89         0.9283538201380076
    x97        c90         1.7274045565295997
    x97        c93         1.6653985250029315
    x97        c106         0.10404917836070325
    x97        c123         0.40571029461307984
    x97        c143         0.50437651146998808
    x97        c150         0.58211750706303556
    x97        c156         0.17921955170455989
    x97        c159         0.68733794217748001
    x97        c176         0.5153627115481122
    x98        obj        1.7385393531280293
    x98        c0         0.39303213487569211
    x98        c16         1.1722041494578321
    x98        c20         1.1773524677806517
    x98        c29         0.82822551400133049
    x98        c37         0.72412224975446371
    x98        c38         0.97480937524352063
    x98        c41         1.7494666419853271
    x98        c43         0.80051081603456853
    x98        c45         1.0839751001079638
    x98        c49         1.8833992749059758
    x98        c60         1.1566700922403843
    x98        c71         0.44616859690678634
    x98        c72         1.4122122387312521
    x98        c73         1.0706622496509308
    x98        c80         0.67340994802960574
    x98        c127         1.0198931985751694
    x98        c129         1.8444966963677893
    x98        c130         0.203998072369519
    x98        c132         0.19573332137808302
    x98        c133         1.235876031276494
    x98        c160         0.6523290651545558
    x98        c169         0.5183505083862241
    x98        c175         0.78339562103605909
    x98        c187         1.1535167259490968
    x99        obj        4.5716173816770294
    x99        c7         1.8221933914281772
    x99        c8         1.7683773362137882
    x99        c14         1.7560263862971106
    x99        c28         0.19685334366159113
    x99        c50         0.18322144682215774
    x99        c59         0.69453796371480447
    x99        c66         0.43834803941443001
    x99        c94         1.1279651537260431
    x99        c101         1.0176808123725523
    x99        c102         0.89826508680432349
    x99        c126         0.17365002900456364
    x99        c143         0.82605115377982341
    x99        c145         0.63647472019866091
    x99        c151         1.530074442830188
    x99        c160         0.20060921568089066
    x99        c173         0.14728729778332333
    x99        c181         0.95760754126156244
    x99        c184         1.8679120926078987
    x99        c194         0.39780964643470607
    x100        obj        4.6823439016253596
    x100        c14         0.32807426249378269
    x100        c20         0.4804274179931497
    x100        c25         1.2819056036520495
    x100        c41         0.10857682906238546
    x100        c49         0.33212856866557855
    x100        c51         0.39844471491036781
    x100        c53         0.11056616559887171
    x100        c54         0.29552644319960797
    x100        c84         0.14835199598503504
    x100        c103         1.5910002464178865
    x100        c110         1.1289736525104075
    x100        c118         0.70038128285179124
    x100        c124         1.0426880717061104
    x100        c148         1.8806148919029935
    x100        c152         1.7569571070033487
    x100        c155         0.39598529879365407
    x100        c162         1.3570559040540502
    x100        c167         0.40160227918369862
    x100        c178         1.7979214413269087
    x101        obj        5.3281387996827565
    x101        c18         0.25029395934945248
    x101        c30         0.97017373226774695
    x101        c62         1.7899078739350669
    x101        c74         1.9674797451338897
    x101        c76         1.4797312238569809
    x101        c83         1.7939733010143246
    x101        c85         1.728794553724067
    x101        c110         0.61899595188851841
    x101        c129         0.99842777934766902
    x101        c139         0.70434150258150174
    x101        c141         1.7145717267331531
    x101        c155         1.1268418032941714
    x101        c157         1.7569524716358964
    x102        obj        3.717385851328729
    x102        c17         1.3339879959924907
    x102        c18         1.503102521872465
    x102        c39         1.0262452752692122
    x102        c43         0.70480904108473019
    x102        c54         1.6241632227048395
    x102        c56         1.1815722045782402
    x102        c77         1.9067796511387278
    x102        c81         1.3333349602988549
    x102        c83         1.7935319368208564
    x102        c85         0.53641240094639631
    x102        c88         0.86697418265328385
    x102        c89         1.0928185244688493
    x102        c101         0.91288048082415107
    x102        c121         1.7605036532585974
    x103        obj        4.5267413830306129
    x103        c0         0.79481566892362299
    x103        c3         0.63669863430001972
    x103        c16         0.20288580905937906
    x103        c38         0.14554325234793433
    x103        c43         0.71499806040222158
    x103        c47         1.0632641248533841
    x103        c52         1.0280867500458863
    x103        c65         0.89172883376904744
    x103        c80         0.16429562694104952
    x103        c87         1.4673215028070954
    x103        c90         1.7096985415962076
    x103        c92         0.45519016116855748
    x103        c94         1.304126537664891
    x103        c104         1.0596235720325502
    x103        c105         0.22542206802606093
    x103        c106         0.1625736158077315
    x103        c138         0.92008842856117168
    x103        c140         1.7548269285217113
    x103        c157         1.4801697180845335
    x103        c163         1.9268721952537633
    x103        c173         1.6261872485424445
    x103        c183         1.769713258122499
    x103        c192         0.91488943446530024
    x103        c197         1.1635537460522078
    x104        obj        4.1747921231902518
    x104        c8         1.8841601823081549
    x104        c13         0.49993290477583696
    x104        c19         0.80881637654317462
    x104        c28         0.28725236044723096
    x104        c38         1.5651749981437604
    x104        c87         1.7179171495104721
    x104        c102         1.1586858830323119
    x104        c109         1.7893788495011451
    x104        c112         1.5850785546565676
    x104        c119         0.9423821758985137
    x104        c125         1.9966786065675559
    x104        c136         1.944404056824891
    x104        c152         1.5360552460741779
    x104        c167         1.3821791957213272
    x104        c177         1.8749072274191538
    x104        c193         1.0722525162271193
    x105        obj        9.1281111609729386
    x105        c32         0.27730895888266283
    x105        c54         1.5964788452089891
    x105        c59         0.33681469960299071
    x105        c71         1.5859738427563939
    x105        c73         0.60730946314346257
    x105        c74         1.9583680882536476
    x105        c83         1.7751224191719399
    x105        c94         1.156698009678861
    x105        c95         1.8473074275670187
    x105        c97         1.8976584949656163
    x105        c100         1.8498501527973124
    x105        c117         0.47562817636075161
    x105        c130         0.24182861244884141
    x105        c140         1.9483843212847998
    x105        c154         1.0264806732715708
    x105        c156         1.3716014334674065
    x105        c168         0.27080668807426844
    x105        c172         1.0685987352162232
    x105        c183         0.19722343044667831
    x105        c190         0.59999756567767071
    x105        c195         1.0076354510486931
    x106        obj        3.4143320621854527
    x106        c6         1.2062709315087592
    x106        c11         0.33192709741830467
    x106        c14         0.99120683545001298
    x106        c16         1.6565161740107142
    x106        c24         1.6903752570246624
    x106        c33         0.11681053403124902
    x106        c42         1.1001256683519083
    x106        c50         0.76687298394027681
    x106        c78         0.3631065487038585
    x106        c79         0.90385766311418825
    x106        c83         1.2288663476562578
    x106        c89         0.7057584168160449
    x106        c103         0.33548796348932619
    x106        c137         1.0421691567953575
    x106        c148         0.77191442647463682
    x106        c149         0.54517723640622917
    x106        c159         0.77631849436984579
    x106        c167         1.6988915526971859
    x106        c191         0.54305720896870013
    x106        c192         0.53147269113407147
    x107        obj        3.9211851188184639
    x107        c0         0.10546123569815721
    x107        c43         0.24594149569376089
    x107        c49         1.1977549601485498
    x107        c63         0.20052446285237752
    x107        c72         1.3038909734077511
    x107        c73         0.88870825392686537
    x107        c91         1.1976268501937395
    x107        c94         1.1968397154756412
    x107        c108         0.5877228314864763
    x107        c116         0.64413971624626676
    x107        c120         0.73590306909786496
    x107        c131         1.5776335083701392
    x107        c142         1.2412761182293195
    x107        c147         0.80909093979543611
    x107        c177         1.389745151032588
    x107        c181         0.67605762223106947
    x107        c182         0.23690500088841851
    x107        c190         1.6831829451152402
    x108        obj        2.2140518767268498
    x108        c9         1.146036225772705
    x108        c13         1.397618423242647
    x108        c18         1.1472113689685717
    x108        c33         1.3500376821762647
    x108        c42         0.21727533516614506
    x108        c43         0.56502659214063233
    x108        c53         0.98257882920505546
    x108        c71         0.26631154499139026
    x108        c74         1.941013150843079
    x108        c81         0.12873801900840764
    x108        c90         1.0222925245285066
    x108        c101         1.8527936609564191
    x108        c115         1.5534364519801254
    x108        c136         0.89660321273451771
    x108        c149         1.6522285141991355
    x108        c154         1.945968767407718
    x108        c165         0.61080710888745915
    x108        c171         1.1397371150535622
    x108        c198         0.25617218614220688
    x109        obj        8.1009586722439426
    x109        c20         0.63728392271770695
    x109        c50         1.8277358956793892
    x109        c56         0.11701895749332361
    x109        c71         0.73602862966514881
    x109        c72         1.5629809992791481
    x109        c80         1.6554136662636243
    x109        c82         0.27878854940959874
    x109        c87         1.39080003084518
    x109        c102         1.3854147796964933
    x109        c116         0.1544393323107649
    x109        c120         0.7733883656695375
    x109        c132         1.1241135747825755
    x109        c135         0.98932804360518312
    x109        c139         0.62238848335952701
    x109        c140         0.37539467407094607
    x109        c144         0.50353637739592638
    x109        c151         1.2552253220802043
    x109        c153         0.52152975071246865
    x109        c159         0.25818381693194647
    x109        c160         1.3070248333381937
    x109        c170         1.5683113490036791
    x109        c180         0.39738774159251822
    x109        c183         0.24460998360829697
    x109        c189         0.65370184598609737
    x109        c193         0.83131184597887731
    x110        obj        3.5249520208637808
    x110        c3         1.3246744400908417
    x110        c29         0.1867266646831004
    x110        c52         0.13314453697464076
    x110        c57         1.2843033900922529
    x110        c62         1.014251083513124
    x110        c105         1.237372791702477
    x110        c123         1.6917011511150755
    x110        c124         1.3545826199656055
    x110        c130         1.4748047752565285
    x110        c143         0.2134466019736008
    x110        c148         1.6127164931127909
    x110        c150         0.57937114798326472
    x110        c151         0.79612109181340363
    x110        c161         0.46319894475172185
    x110        c176         1.749260909831474
    x110        c198         1.1745703909434639
    x111        obj        9.9952904972667778
    x111        c0         1.6975915105715746
    x111        c7         0.43293662374871666
    x111        c14         1.1578780490918652
    x111        c32         1.2327290110385056
    x111        c61         0.23021589640738918
    x111        c73         0.8652462385213141
    x111        c80         1.6406273807309104
    x111        c98         0.78624717053531623
    x111        c103         1.7838946147680288
    x111        c136         1.0527950840946418
    x111        c175         1.7244860723894553
    x112        obj        4.0679135848797277
    x112        c12         0.12861500075607885
    x112        c40         0.2001440614312838
    x112        c46         0.89548560801364385
    x112        c48         1.6366535797721624
    x112        c50         0.15559396852623511
    x112        c56         1.3410052850832901
    x112        c58         1.648651816074121
    x112        c61         1.9063444719806049
    x112        c77         0.86579988180166678
    x112        c108         1.4139813755690063
    x112        c122         1.2698855393549635
    x112        c146         0.31175914469258281
    x112        c154         0.15533268370781039
    x112        c165         1.9020598617825248
    x112        c169         0.24275323276536659
    x112        c174         0.19070395977842738
    x113        obj        6.8989185773272723
    x113        c26         0.72748998624344141
    x113        c29         1.1539875581254657
    x113        c38         1.600921968173654
    x113        c50         0.83794751544922719
    x113        c73         0.71472341795712457
    x113        c79         0.74558420193353092
    x113        c89         1.3066064859403566
    x113        c92         1.0603649465346781
    x113        c102         1.1583206463989921
    x113        c130         1.359637924589431
    x113        c150         1.6780991857636742
    x113        c168         1.2443775339431415
    x113        c188         1.1831447640867103
    x113        c195         1.1313034935092166
    x113        c197         1.2252159632883715
    x113        c198         0.30388588678252393
    x114        obj        2.3199197690624747
    x114        c2         0.48511350676434406
    x114        c3         1.3855890106436481
    x114        c6         1.5580379117218235
    x114        c26         1.3962667157392392
    x114        c38         1.2315167307993737
    x114        c56         1.391322921429212
    x114        c58         1.9210849429692811
    x114        c59         1.8390755910847363
    x114        c66         0.38731769511688363
    x114        c76         0.16605978347562197
    x114        c79         1.7159180472057445
    x114        c91         0.7789119404696967
    x114        c97         0.97904820312468399
    x114        c110         1.2398187475340143
    x114        c111         1.2993194279866398
    x114        c113         0.73793246362458964
    x114        c132         1.9928942103588965
    x114        c149         0.34556577798340504
    x114        c174         1.6349680713145047
    x114        c180         1.6635840868148799
    x114        c190         0.66692539235920312
    x114        c191         0.14789940544262375
    x114        c192         0.36405447619488496
    x114        c193         1.8325040902882626
    x115        obj        4.4937752349777416
    x115        c7         1.8922227064217811
    x115        c32         0.52613426673056962
    x115        c33         1.6747147232524995
    x115        c35         0.39380924734319922
    x115        c39         0.62730238641310421
    x115        c47         0.33461533945636979
    x115        c55         1.0634827819374624
    x115        c57         1.4041330785004471
    x115        c58         1.3040172661211527
    x115        c70         1.9291644089047777
    x115        c75         1.066322507210304
    x115        c83         0.62474795720130771
    x115        c93         1.8228640027473779
    x115        c105         0.85623108998458541
    x115        c116         0.2419649448477191
    x115        c117         0.13436693179054138
    x115        c133         1.2260216980809944
    x115        c150         0.30490849716879109
    x115        c152         1.9579062489966934
    x115        c156         0.49809607745548878
    x115        c157         0.2444770137055193
    x115        c159         1.3351103246715119
    x115        c174         0.83426737026008435
    x115        c179         1.3185842119135593
    x115        c181         1.0035882136453527
    x115        c188         0.66710872225332585
    x115        c194         1.9820692706424088
    x116        obj        4.5928641100964773
    x116        c10         0.39025675072447308
    x116        c11         0.44330322829552393
    x116        c22         0.52027237564020523
    x116        c68         0.34723489111685779
    x116        c81         0.53568426366088762
    x116        c149         0.95886360122435865
    x116        c158         1.158250925780246
    x116        c164         1.6135917315822603
    x116        c181         1.5463391174759684
    x117        obj        1.1055108285583128
    x117        c6         0.6477725763550326
    x117        c21         0.86263183568231272
    x117        c37         0.84858168079942464
    x117        c45         1.0583032796485128
    x117        c60         1.3571230160909649
    x117        c68         1.830294466918331
    x117        c97         1.6777092046895887
    x117        c117         0.40158699005990217
    x117        c122         0.16655530465125626
    x117        c125         0.74395303961156811
    x117        c172         0.78200556151195588
    x117        c176         1.2581282310448725
    x118        obj        4.0288420237180533
    x118        c15         0.21121865103703208
    x118        c21         1.3078121032378736
    x118        c34         0.27391448812329178
    x118        c54         1.2439727795510824
    x118        c55         1.9672939879035918
    x118        c61         1.9497239112738245
    x118        c63         1.1232378869278239
    x118        c67         0.45153375646700622
    x118        c69         0.33703844625942725
    x118        c75         1.0589243340823662
    x118        c96         1.5999501565638579
    x118        c114         1.5891958726607018
    x118        c116         1.3250545045150106
    x118        c119         1.8502670811344313
    x118        c129         0.40003897320228488
    x118        c134         0.12773838239235738
    x118        c141         0.72207315607587608
    x118        c142         0.24895272665968249
    x118        c147         1.5127642559438026
    x118        c165         0.32769828490200331
    x118        c182         1.5404660736418281
    x118        c190         0.53385825167099699
    x118        c197         0.87302454077158265
    x119        obj        1.3999307414137485
    x119        c23         0.60886994522823035
    x119        c26         0.87821177625086155
    x119        c31         0.15766692825089484
    x119        c33         0.18802279601613492
    x119        c44         1.9889453084840401
    x119        c47         0.64081648932475876
    x119        c51         0.78070444245960047
    x119        c55         0.64377661876206649
    x119        c72         0.24304856300944511
    x119        c77         1.9451788138322361
    x119        c85         1.2294384678425283
    x119        c92         1.9882236413475733
    x119        c112         1.0438908066027595
    x119        c130         1.297152625405489
    x119        c155         1.6358693465767438
    x119        c164         1.0746148199794856
    x119        c173         1.3735359680270816
    x119        c180         0.71995342246193605
    x119        c182         1.9754524736312526
    x119        c185         0.50889430836553218
    x119        c190         1.7565273022046628
    x120        obj        8.2984011335929377
    x120        c26         1.5421317233353933
    x120        c40         0.37384791618129776
    x120        c42         1.3622392043396203
    x120        c44         0.17947132117302855
    x120        c48         1.8482804640727388
    x120        c58         1.8980784084262468
    x120        c83         0.39287543265946268
    x120        c102         1.8045011328305316
    x120        c122         0.95055983356426454
    x120        c136         0.8605055672389057
    x120        c144         0.75683299083223576
    x120        c159         1.9005921456890256
    x120        c179         1.2834109552309958
    x120        c189         0.9514845147783354
    x120        c193         1.0640921797202549
    x120        c197         1.6040530840486404
    x121        obj        2.6164733738380992
    x121        c19         1.1828966480482261
    x121        c38         1.6569842621177222
    x121        c70         0.17633539750842636
    x121        c82         1.1412308981520489
    x121        c83         0.81558907395402902
    x121        c94         1.9327164332905729
    x121        c117         1.5368845010271646
    x121        c157         1.5448747287025804
    x122        obj        6.9869432014598063
    x122        c0         1.3773692014022954
    x122        c13         0.84793541547154516
    x122        c19         1.6556092291702222
    x122        c20         0.29071332906002684
    x122        c26         0.54195359864317649
    x122        c51         0.56526859424382569
    x122        c57         1.5127592448754363
    x122        c58         1.6663727139153384
    x122        c62         0.63656037198171889
    x122        c103         0.43663017343483301
    x122        c108         0.47821507907582506
    x122        c124         1.5365722350633504
    x122        c125         0.85173973271253034
    x122        c130         0.74390227599317071
    x122        c134         0.82178515777543859
    x122        c161         0.5161997869239755
    x122        c166         1.7385909103702728
    x122        c168         0.69427301876404157
    x123        obj        1.9242942268634065
    x123        c0         0.52347954546877007
    x123        c6         0.39409175442316535
    x123        c13         1.3722122490596393
    x123        c31         0.5619287482389862
    x123        c32         0.71338196107695007
    x123        c50         1.1465230875793007
    x123        c61         0.88064162836107607
    x123        c63         0.3882063627712774
    x123        c64         1.6120503793147609
    x123        c66         0.96453261897263454
    x123        c75         0.80967034041291308
    x123        c79         1.700056684037432
    x123        c88         0.75247644882859221
    x123        c94         1.4228206557977465
    x123        c97         0.63987020360044911
    x123        c107         1.6380160647845896
    x123        c111         1.6990698611231172
    x123        c116         0.25740032019942
    x123        c118         1.4531334667537685
    x123        c133         1.5958423854933712
    x123        c149         0.79103482825270777
    x123        c155         0.9415762688982654
    x123        c157         1.0889693348346179
    x123        c158         1.5778564984248027
    x123        c163         1.3569352108233603
    x123        c196         0.32397208331789867
    x124        obj        3.6595447831157708
    x124        c10         0.68691712638475699
    x124        c14         0.59307232716552816
    x124        c19         1.6521414417372624
    x124        c22         0.26985464096860645
    x124        c28         1.977444894334847
    x124        c32         1.1242346319977961
    x124        c48         1.1226589573308476
    x124        c59         1.3579166385850427
    x124        c67         0.58148162363154576
    x124        c75         1.6382162245039282
    x124        c80         1.4337024274626935
    x124        c86         1.7022543786830213
    x124        c91         1.7728615886907619
    x124        c93         1.4133504332966351
    x124        c94         1.6079353571125168
    x124        c104         1.5114846079152875
    x124        c117         0.19566409656982578
    x124        c131         1.8191044518524977
    x124        c152         1.3543103327451209
    x124        c157         1.0021665817711292
    x124        c161         1.3477223022403169
    x124        c165         0.37752476426665293
    x124        c166         0.65985352224826888
    x124        c170         1.8559099931516785
    x124        c183         0.96053837721658197
    x125        obj        7.6385694418638206
    x125        c11         1.0497373705847024
    x125        c26         0.34848655402086742
    x125        c31         0.65416934503751545
    x125        c42         0.46729095407695476
    x125        c48         0.50423933477730321
    x125        c49         0.31728783229740609
    x125        c54         1.9485219317108184
    x125        c61         1.7990912184742787
    x125        c68         0.85937366348038302
    x125        c72         1.6325773835705364
    x125        c75         0.90996505800590477
    x125        c81         0.58443374024589345
    x125        c92         1.4598279277868003
    x125        c111         0.32436965009606156
    x125        c113         1.4011898824530886
    x125        c127         1.8844036938728255
    x125        c129         0.26363221054054781
    x125        c142         1.4775316907763794
    x125        c144         0.72302205015489496
    x125        c151         1.3799978068224452
    x125        c187         1.1055436212431815
    x126        obj        1.5682687503244768
    x126        c1         0.33518442015497241
    x126        c9         0.83349548854163436
    x126        c17         1.1588982470923563
    x126        c36         0.1848993383561166
    x126        c42         1.9842864145500001
    x126        c47         0.88947995043493
    x126        c49         0.23379388870003065
    x126        c51         0.65545481199598277
    x126        c67         0.26047588438253955
    x126        c77         1.0608139828725169
    x126        c99         1.7117277185366715
    x126        c122         0.92072295294126361
    x126        c126         0.70357776259719484
    x126        c148         1.3287820240707418
    x126        c179         1.8144556534831644
    x126        c181         1.0665287454854908
    x126        c185         0.12592804800700486
    x126        c192         1.1426897448492157
    x126        c196         1.1919516719703913
    x126        c199         0.63153155473575051
    x127        obj        3.3325667166472068
    x127        c6         0.98371494065759091
    x127        c22         1.8654274198473921
    x127        c24         1.705114832149885
    x127        c41         0.73823319813934984
    x127        c70         1.1107769681118305
    x127        c86         1.0158017884013522
    x127        c96         0.43072337208020872
    x127        c98         0.29588916305325536
    x127        c111         0.54213290068551689
    x127        c115         0.24490642335105506
    x127        c118         1.5133678120764475
    x127        c149         0.60240154479314223
    x127        c157         1.4726834784912826
    x127        c158         0.26617434713915006
    x127        c170         1.3541233537603921
    x127        c175         1.5101892105662558
    x127        c176         1.9644396319058481
    x127        c186         1.6939506013498435
    x127        c187         1.5512288412147772
    x128        obj        8.9471939334513451
    x128        c4         0.16565601301145555
    x128        c8         1.7319505309629368
    x128        c32         1.400404338685501
    x128        c43         0.25542893602332506
    x128        c69         1.2533754695116774
    x128        c76         1.0735200538443388
    x128        c83         0.70690665315570411
    x128        c85         0.61428369366299795
    x128        c86         0.48044809203907435
    x128        c113         0.7309560555415574
    x128        c120         0.53865970394830676
    x128        c122         1.6647571180568133
    x128        c125         1.0228340307622639
    x128        c129         1.4004417366553037
    x128        c135         0.54748080139965494
    x128        c153         0.50952707030946442
    x128        c160         1.1399924752624666
    x128        c161         1.4283232977513651
    x128        c172         1.0856454935780893
    x128        c192         1.6789717756919613
    x128        c197         0.25382527127384369
    x129        obj        3.4433562632981021
    x129        c7         0.23841116355871655
    x129        c22         1.4406246990310574
    x129        c29         1.5362079665573658
    x129        c41         0.56167178793166739
    x129        c42         0.79070539984483157
    x129        c50         1.7568485046279276
    x129        c51         1.7346683542127037
    x129        c75         1.6313293733208969
    x129        c79         1.4981793661814877
    x129        c85         0.39184881992514153
    x129        c104         1.2214263444755906
    x129        c108         0.54113404533349685
    x129        c120         1.5365021600788173
    x129        c122         0.84377716700275973
    x129        c128         1.7498941544823776
    x129        c131         1.197200298609937
    x129        c140         0.83464283030240827
    x129        c148         0.41755387790613419
    x129        c149         1.0460016620284951
    x129        c153         1.0515092174106331
    x129        c155         1.0833773898686963
    x129        c158         0.26223112200410409
    x129        c171         0.29402483737643037
    x129        c188         0.8029905884909958
    x130        obj        1.0935543995964974
    x130        c8         0.1839133596557537
    x130        c14         0.13970355751348756
    x130        c33         0.72502453228725583
    x130        c37         1.7221909841999337
    x130        c41         0.97892428950367827
    x130        c47         0.97405361172010896
    x130        c51         1.8817635025848587
    x130        c80         1.0820341314861033
    x130        c84         0.31909052747907274
    x130        c90         1.9535013090286089
    x130        c102         0.62483806440139544
    x130        c141         1.5150810590099741
    x130        c156         1.6517193999695978
    x130        c165         1.0087125699634734
    x130        c167         0.37191455461344081
    x130        c170         1.3448264412052544
    x130        c175         0.74310420285449885
    x130        c184         1.8631617769176843
    x131        obj        8.2275111350965204
    x131        c2         1.8450115538403522
    x131        c19         0.93546473549217435
    x131        c22         1.4471195536326238
    x131        c25         1.6285705497288647
    x131        c26         0.41150379439448381
    x131        c30         0.90245052051004271
    x131        c38         0.64114880550266773
    x131        c52         1.8797619208059839
    x131        c73         1.8103534995931525
    x131        c88         0.48126153161592455
    x131        c91         0.43863763230551434
    x131        c98         1.0355804010292402
    x131        c103         1.7601247225557828
    x131        c118         1.177642858955668
    x131        c124         0.83619319588772001
    x131        c135         1.6576294676224006
    x131        c138         1.4553377912677861
    x131        c143         1.1326126163821535
    x131        c177         1.4258267692696702
    x131        c179         1.0905294856841143
    x131        c183         0.94617696703900089
    x131        c185         1.550163066191566
    x131        c188         1.6305103265315097
    x131        c191         1.8168658889687739
    x131        c196         1.3725830580225737
    x132        obj        8.5876033800510818
    x132        c7         1.4944797883588363
    x132        c16         1.7134046118196842
    x132        c19         1.9388174286436908
    x132        c28         0.50384958782603173
    x132        c48         1.2150062735642679
    x132        c51         1.2223179337512633
    x132        c67         0.8588394369105633
    x132        c86         0.9256925385758904
    x132        c95         0.5003103223998161
    x132        c101         1.5963053563515492
    x132        c124         1.8337182989064496
    x132        c126         0.77152050362798408
    x132        c127         0.7302603201411052
    x132        c128         1.1496243328793043
    x132        c129         1.9451601204833455
    x132        c131         1.649355685495723
    x132        c146         1.4371075517072531
    x132        c151         1.4918094154294113
    x132        c156         1.8904835299458431
    x132        c159         1.1061956061304885
    x132        c163         0.63863104986636199
    x132        c183         1.6105159806408875
    x132        c195         0.9930732146593827
    x132        c197         1.6898392547133254
    x133        obj        8.3632327250870322
    x133        c2         1.2994518583775727
    x133        c6         0.88947623645022111
    x133        c12         1.1378865145797525
    x133        c27         0.21779706198959001
    x133        c30         1.0080683491046654
    x133        c33         1.1830422536102851
    x133        c36         1.6942965318100702
    x133        c39         1.5390800553069646
    x133        c41         1.3200788355357269
    x133        c52         1.5454277360334336
    x133        c54         1.1975934176879492
    x133        c55         1.5180014520818315
    x133        c60         1.6300622108021769
    x133        c65         1.9459646118686413
    x133        c75         0.92134559531469107
    x133        c79         0.54855284752629307
    x133        c86         0.47343134114110152
    x133        c94         0.28726170487833125
    x133        c106         1.7618330700030942
    x133        c136         1.799637271390764
    x133        c146         1.5050255287871921
    x133        c147         0.18028291159860069
    x133        c159         1.9111673270107217
    x133        c162         1.945144805338376
    x133        c170         0.32125886990587282
    x133        c173         1.6500727498132295
    x133        c183         1.1790439295610271
    x133        c193         1.113100122437682
    x133        c196         1.2462134477525599
    x134        obj        8.3105401692164502
    x134        c7         1.7285952554649515
    x134        c23         1.205194449829734
    x134        c45         0.48957696463920031
    x134        c49         0.62041000105469313
    x134        c51         0.51856564333768818
    x134        c69         1.4463434726307733
    x134        c78         0.58126495485471741
    x134        c82         1.9358420913283048
    x134        c83         0.77075482095243164
    x134        c115         0.12304868378323928
    x134        c132         1.6598116887544905
    x134        c136         1.9916088312523812
    x134        c142         1.7438272074922609
    x134        c143         1.6977980612509433
    x134        c158         0.10066413341187186
    x134        c161         1.2849208770796865
    x134        c174         1.8439637931791473
    x134        c190         1.2380419365964712
    x135        obj        7.1792932120807142
    x135        c25         1.8275647570346121
    x135        c32         0.95888325265454988
    x135        c38         1.7315860336803721
    x135        c41         0.18733106938918556
    x135        c63         1.8458096509265443
    x135        c72         1.1086436708727345
    x135        c77         1.8287622592466684
    x135        c80         1.5720907557477855
    x135        c91         0.32847902179059008
    x135        c96         0.37336402936943691
    x135        c98         0.51371176081703041
    x135        c119         1.3515574535501591
    x135        c153         1.2405847816591342
    x135        c155         1.5610754912902423
    x135        c164         1.0869805312896617
    x135        c172         0.18085954309049079
    x135        c173         1.7361220828686994
    x135        c176         0.505265790979468
    x135        c191         1.1802403619749633
    x136        obj        6.5546292041039207
    x136        c11         1.4058264292945335
    x136        c37         1.913959479813097
    x136        c39         0.19908468555355499
    x136        c51         1.2834392655954221
    x136        c54         1.8183892200739646
    x136        c56         1.0182251396722473
    x136        c70         0.32471610023400388
    x136        c84         1.4300064721020722
    x136        c109         1.3499962846920432
    x136        c121         1.5152007389176168
    x136        c150         0.47555450199675187
    x136        c152         1.7472900534012057
    x136        c177         0.77058578250562881
    x136        c179         1.8287180752700929
    x136        c185         0.51134990526094481
    x136        c192         0.33849965329304643
    x136        c194         1.1569761064447366
    x136        c197         0.24721299088396395
    x137        obj        9.4735817914554232
    x137        c8         1.6834911564051966
    x137        c11         0.58748218076023395
    x137        c21         1.9819059445921388
    x137        c26         1.5128196044770419
    x137        c30         1.3320820233193595
    x137        c52         0.26750748676267888
    x137        c96         0.85655397547341794
    x137        c99         1.6120718825063618
    x137        c104         0.50369190121849483
    x137        c121         0.68101180136159245
    x137        c144         0.15394207337664245
    x137        c173         1.9521256042070096
    x137        c174         1.2763753725049911
    x137        c177         0.9675868284282988
    x137        c179         1.0656315273557444
    x137        c185         1.4625014105419465
    x138        obj        5.929896675768366
    x138        c12         0.41369613026056351
    x138        c16         1.0958829267876062
    x138        c23         1.7412532777408667
    x138        c24         0.39342949823446838
    x138        c27         1.6879931768496452
    x138        c36         1.2836901283408924
    x138        c40         0.92139342207263653
    x138        c43         1.8494247256817415
    x138        c58         1.8005874628335525
    x138        c79         1.6612390932749563
    x138        c82         1.6644814045467893
    x138        c89         0.18357153628693643
    x138        c103         1.6105215015795555
    x138        c105         0.76239808105743601
    x138        c125         0.93770775042405752
    x138        c148         0.35799161737326879
    x138        c150         0.61793601614952864
    x138        c183         0.81087236444345945
    x139        obj        5.2130194348862853
    x139        c2         1.4023478035779804
    x139        c21         1.3004076649574179
    x139        c35         1.6957481349532741
    x139        c61         0.10023198779087289
    x139        c74         0.4891334701781872
    x139        c88         1.5196332093032008
    x139        c90         1.9270979402269797
    x139        c94         1.0111031237342512
    x139        c101         1.31565646010953
    x139        c104         0.66934260083469066
    x139        c115         1.9752735232500676
    x139        c117         1.1876534803065004
    x139        c145         0.48887218706443658
    x139        c147         1.0471110907912513
    x139        c150         0.25474204896341018
    x139        c160         0.44180981678738707
    x139        c164         1.6323808764829701
    x139        c185         1.9237507573473061
    x139        c187         0.81103530506804833
    x139        c189         1.1546522810544955
    x139        c199         1.6618346192453335
    x140        obj        6.0357787894405144
    x140        c0         1.6388924859948952
    x140        c3         1.5395271418321264
    x140        c5         0.28337498743777167
    x140        c33         1.0162509065808389
    x140        c35         0.7008148322523583
    x140        c45         1.3818110410305739
    x140        c46         0.93656763807936427
    x140        c70         1.1031750985559696
    x140        c105         1.4191902479395027
    x140        c111         1.3701081506970649
    x140        c123         1.0829986680025474
    x140        c134         1.2964848540221117
    x140        c136         0.93476388415214873
    x140        c141         1.6628285618738117
    x140        c152         0.20062293231632716
    x140        c155         0.42651027008169495
    x140        c161         1.4809783066378963
    x140        c169         0.23859343122361992
    x140        c179         0.73196845818326373
    x140        c189         0.20319797999593769
    x140        c196         1.9302173031736887
    x140        c199         0.60459264002073554
    x141        obj        5.0460795617646816
    x141        c5         0.5581845368848356
    x141        c6         1.464530224627242
    x141        c7         1.9056223095483078
    x141        c29         1.6474465072575877
    x141        c46         0.67908675025083676
    x141        c48         1.2669494704403235
    x141        c59         1.4768272313381132
    x141        c71         0.26331532523345541
    x141        c73         1.4442328884698936
    x141        c82         1.9799961027463626
    x141        c84         0.89891322746594815
    x141        c85         1.122420043144216
    x141        c102         1.7495177045247701
    x141        c104         1.1029352012861908
    x141        c107         1.9605516024054763
    x141        c109         1.6285131740497893
    x141        c117         1.5988031207555926
    x141        c129         1.9591299188340761
    x141        c131         0.31846223126501905
    x141        c132         0.60554259594703264
    x141        c143         0.31058871920471887
    x141        c157         1.2669872763981911
    x141        c184         1.5461620178190305
    x141        c192         0.55149814797274721
    x142        obj        7.2155465980310991
    x142        c10         1.9283385662779136
    x142        c21         1.4245514886917892
    x142        c37         1.6388214433764883
    x142        c40         1.5673687920122061
    x142        c43         1.9913913982870881
    x142        c54         0.40448075305994224
    x142        c56         0.76776072987326816
    x142        c63         1.8528207828083438
    x142        c65         0.37487673142399169
    x142        c86         1.8411892643964181
    x142        c87         0.56122052551279955
    x142        c100         1.3456042727031061
    x142        c103         0.57657140906845161
    x142        c128         1.1601660781991032
    x142        c135         0.80967140140107818
    x142        c154         1.8345000221257142
    x142        c195         1.047033279722176
    x143        obj        8.0450393778322393
    x143        c4         1.7096692118772501
    x143        c5         1.0345349387418545
    x143        c23         0.69792400452145353
    x143        c28         0.60819567817038478
    x143        c31         0.41505102424839624
    x143        c40         0.12166796013548545
    x143        c45         0.7131675733693168
    x143        c50         0.62940371780304771
    x143        c60         1.1073448862791377
    x143        c63         1.0434812083530038
    x143        c67         0.56135665995761463
    x143        c69         0.73499151949565822
    x143        c73         0.26340193473089524
    x143        c100         1.5393555198601157
    x143        c107         0.36692204602714829
    x143        c110         1.2128568785942095
    x143        c149         1.951687893957528
    x143        c151         1.4852611713090975
    x143        c154         1.30135724769598
    x143        c157         0.7593113202543722
    x143        c191         0.28350925462874615
    x143        c193         0.47785713432668098
    x144        obj        9.7395625928074949
    x144        c1         1.373940240122463
    x144        c3         0.73395078624428534
    x144        c15         0.3741133473256647
    x144        c42         0.22749808659292647
    x144        c59         1.0195520934454096
    x144        c80         1.0722733844043058
    x144        c103         0.18732550175110396
    x144        c106         0.22815966248982542
    x144        c113         0.56534155205152792
    x144        c126         1.7770638791481617
    x144        c127         0.21456791283970972
    x144        c140         1.6714356594300028
    x144        c145         0.28081886758301278
    x144        c150         1.2571874733363719
    x144        c154         0.2231735324452559
    x144        c181         0.89046098879717828
    x144        c185         0.54665612422096221
    x144        c192         1.7850862215521324
    x145        obj        9.2062502233343491
    x145        c5         0.62040743050372804
    x145        c21         1.4859753357019163
    x145        c27         1.2013854718692918
    x145        c46         1.936164911481111
    x145        c62         1.8277302267844699
    x145        c64         1.633849544411744
    x145        c71         0.67734350787484887
    x145        c92         0.53936421526046363
    x145        c109         0.88701701575083647
    x145        c113         0.824352066330305
    x145        c114         1.2378645526222378
    x145        c116         0.12136823456538318
    x145        c125         1.671829525699436
    x145        c128         0.37082342370299337
    x145        c156         1.4851523516675862
    x145        c165         1.3151377018181525
    x145        c178         0.56918368222902105
    x145        c186         1.9074651372024569
    x145        c198         1.1502321446313228
    x146        obj        2.7390552592706552
    x146        c8         1.0131064112164327
    x146        c35         0.35171661244999219
    x146        c52         1.8429498304679235
    x146        c63         0.69267684026372178
    x146        c66         1.061048637585948
    x146        c77         0.71098469330143532
    x146        c87         1.1087227854064872
    x146        c88         1.7847747763597219
    x146        c96         0.64490828329344319
    x146        c100         0.13259249615725785
    x146        c118         0.4186850164101783
    x146        c128         0.58381084720084075
    x146        c136         0.19441818046725268
    x146        c139         0.38237208583544002
    x146        c154         0.78946398370471593
    x146        c155         1.3111306902824396
    x146        c162         1.3702851397051448
    x146        c164         1.77057530047145
    x146        c184         0.94391886543670855
    x146        c197         0.86452635432302116
    x146        c198         0.6896956061724997
    x147        obj        4.4254639146100025
    x147        c14         0.18588520669199965
    x147        c36         1.0960372006561743
    x147        c44         1.3311620018283115
    x147        c55         0.65015525453409784
    x147        c65         1.9326452730179735
    x147        c67         1.7734033350284124
    x147        c98         0.82522006131537207
    x147        c104         0.67847021764185034
    x147        c115         1.93417151295458
    x147        c116         1.1559913380883688
    x147        c118         0.89042466136184228
    x147        c122         1.609110792202489
    x147        c128         1.0780448431213232
    x147        c134         1.7656549923200002
    x147        c163         1.6652758588021579
    x147        c175         1.19810784467493
    x147        c176         0.2967859436633794
    x147        c184         0.77885972383043012
    x148        obj        4.225668385944612
    x148        c4         0.13124647442081938
    x148        c6         0.55195210663213568
    x148        c20         1.2186436227782937
    x148        c22         0.52551808198952421
    x148        c35         0.14926039830292204
    x148        c44         0.94299121211883918
    x148        c72         0.13979322957392609
    x148        c81         0.48948395047473447
    x148        c110         1.6481741664642908
    x148        c117         1.9955741496348347
    x148        c124         1.9834645479989892
    x148        c141         0.93784768144561814
    x148        c146         0.51808860773358234
    x148        c172         1.1278848134777577
    x148        c185         0.11548253026376785
    x149        obj        8.7736347351380282
    x149        c6         1.9319038864048972
    x149        c51         0.79327276554621562
    x149        c65         1.4829430073297567
    x149        c93         0.65899624804794521
    x149        c97         1.6060138579882988
    x149        c114         1.4969120567304441
    x149        c117         0.87133785026966803
    x149        c124         1.4272865792271523
    x149        c128         1.898369286945701
    x149        c141         0.88060968571523968
    x149        c144         1.3056939049348655
    x149        c172         1.7372103184079262
    x149        c180         0.97661520857440476
    x149        c184         0.75517982162309438
    x150        obj        4.4332562193033578
    x150        c3         0.1285297764794513
    x150        c25         0.84013802257743753
    x150        c29         0.87541761500087145
    x150        c30         1.1844640132989983
    x150        c45         1.3391114341668406
    x150        c58         0.28456523383898391
    x150        c100         0.53428654043445845
    x150        c110         1.9108123643727961
    x150        c127         1.7792023874668943
    x150        c135         0.31784177952319037
    x150        c139         0.70827376570825928
    x150        c152         0.69273774977087099
    x150        c161         0.69341476823385395
    x150        c174         0.78791109831773509
    x150        c177         0.29934737493961328
    x150        c188         1.7205704814225347
    x150        c190         1.1375939040876768
    x150        c194         1.595393113962368
    x150        c195         1.7140940299618082
    x151        obj        7.1863217271424364
    x151        c11         0.62508334016995848
    x151        c15         1.2190665323584415
    x151        c21         0.81271846406411974
    x151        c29         0.50960069224221971
    x151        c56         1.1924133760058309
    x151        c57         1.020710237710575
    x151        c73         1.2766967905175979
    x151        c90         0.35971599701866941
    x151        c103         0.73270869395197857
    x151        c108         1.2676245762040625
    x151        c121         0.19103518342751008
    x151        c138         0.16403147528596662
    x151        c140         0.74159827988673266
    x151        c150         1.3203465374871837
    x151        c152         1.3033249520536634
    x151        c167         0.18176646516365816
    x151        c169         1.922101668153279
    x152        obj        6.641366513826287
    x152        c2         1.3923798122583415
    x152        c12         0.47316759191983293
    x152        c15         0.86357685907084403
    x152        c21         1.86994138914207
    x152        c26         1.4647610219725282
    x152        c35         1.6629462506778236
    x152        c43         0.80191816889282053
    x152        c48         0.58231269099522642
    x152        c58         0.8983898266164887
    x152        c59         1.2425166809576285
    x152        c63         0.90039936911914864
    x152        c71         0.60055805639405069
    x152        c89         0.75757149742411545
    x152        c109         1.652389675731178
    x152        c113         0.28904222510183875
    x152        c129         0.39251072270694976
    x152        c137         0.54610648134739026
    x152        c161         0.80278819034728111
    x152        c165         1.5469185411094031
    x152        c168         0.98797562433540442
    x152        c170         1.0714738822774106
    x152        c172         0.12422317984507131
    x152        c173         1.5124374102958613
    x152        c190         1.320397488981579
    x153        obj        2.9406822365382688
    x153        c5         1.4008009550420075
    x153        c12         1.4882079545527767
    x153        c13         1.2105643939453898
    x153        c20         0.48472070936470601
    x153        c32         1.792568036460054
    x153        c41         0.6246315961940625
    x153        c46         0.90909228242790907
    x153        c56         0.51175358988897357
    x153        c74         1.6542446267396924
    x153        c107         1.2398432729415854
    x153        c109         1.7371639787935285
    x153        c116         0.49933248273345998
    x153        c119         1.8496687309834332
    x153        c122         1.2794084914385626
    x153        c135         0.51952021559112227
    x153        c142         1.7895976564673719
    x153        c144         0.5404520425724032
    x153        c150         1.1626455311666462
    x153        c158         0.49436687808268631
    x154        obj        1.6479962440764404
    x154        c27         1.7694584880146624
    x154        c36         1.9372105344802004
    x154        c46         0.49735859025063167
    x154        c47         1.0722850655757428
    x154        c59         1.818592785993465
    x154        c62         1.7909613207386317
    x154        c65         0.20104768751948363
    x154        c67         1.3023977129823292
    x154        c69         1.5900449518419102
    x154        c76         1.2397677116371049
    x154        c80         0.49054902417551915
    x154        c81         1.4732585388131481
    x154        c95         1.3183641819672611
    x154        c127         0.89184877559142572
    x154        c129         0.14760230156627988
    x154        c132         0.29482151778463783
    x154        c140         1.0839631345456693
    x154        c152         0.74800897265151278
    x154        c173         1.9763327369820913
    x155        obj        3.3344741413121142
    x155        c8         1.7023385173896286
    x155        c18         1.0449886963290551
    x155        c22         1.4549017984839958
    x155        c36         1.7011849875419649
    x155        c48         1.5001821590619309
    x155        c51         1.5759564352932232
    x155        c63         0.77333217303695323
    x155        c70         0.44953894588435261
    x155        c93         0.77756099708740978
    x155        c104         0.17000413768571537
    x155        c128         1.8229199730623167
    x155        c134         1.5690328194399217
    x155        c138         0.11573956374134443
    x155        c145         1.4907242351733674
    x155        c147         0.12407240475542303
    x155        c151         0.805350072320833
    x155        c157         0.31637071783935983
    x155        c173         1.7484744047309417
    x155        c176         0.94236216582875576
    x155        c182         1.524982183749978
    x155        c199         0.30019061509146272
    x156        obj        6.2288792873208711
    x156        c31         0.87412936909153383
    x156        c34         0.6795387850873077
    x156        c56         1.291554191893169
    x156        c77         0.58460658489839812
    x156        c80         0.19980958881149119
    x156        c82         1.6918216199113498
    x156        c92         1.6854467789339596
    x156        c96         0.1970509038562368
    x156        c104         1.1921848759554583
    x156        c127         1.218307201561631
    x156        c132         0.83071843532918177
    x156        c133         1.8727014385227641
    x156        c139         0.48968785223577571
    x156        c150         1.1958235533424995
    x156        c153         0.27119851561997438
    x156        c181         1.947216669975298
    x156        c186         0.21772335946084576
    x156        c198         1.211182380674376
    x157        obj        9.6429551734330641
    x157        c0         1.8309285736382612
    x157        c10         0.50591433956073595
    x157        c13         0.9875411421561503
    x157        c16         1.0244802821923049
    x157        c19         1.8873710032776694
    x157        c26         0.26719705326247201
    x157        c31         0.36502143895019901
    x157        c51         1.2795066070893217
    x157        c72         0.28331361408952282
    x157        c74         0.48006029806213357
    x157        c75         0.60932307689998166
    x157        c82         0.96832652980450962
    x157        c83         1.6094227022673535
    x157        c86         1.8013807567898226
    x157        c111         0.44341165162329588
    x157        c130         1.9453085303741606
    x157        c134         1.4235775384239864
    x157        c139         0.41548639752204175
    x157        c150         1.5280518261944849
    x157        c175         0.7789906017573075
    x157        c185         0.14937691517184618
    x157        c186         0.17283324837175498
    x158        obj        3.8380034927698814
    x158        c16         1.1534308441016994
    x158        c17         0.92985331047344877
    x158        c29         1.0902932754074761
    x158        c34         1.1007799836801355
    x158        c47         0.69325631260015552
    x158        c50         1.4806695100574594
    x158        c73         1.9877994254471238
    x158        c130         0.29477032961971894
    x158        c142         0.20977452047109552
    x158        c148         1.1941860799893562
    x158        c155         0.90955690033328351
    x158        c166         1.7984012058295595
    x158        c172         0.93632310301408128
    x158        c188         1.4044543040323816
    x158        c197         1.5984099780406495
    x158        c198         1.6537237512851835
    x159        obj        4.8926914740324481
    x159        c2         0.99732944795085643
    x159        c4         1.8392595711893955
    x159        c17         0.45044951623452989
    x159        c18         0.11247272060599758
    x159        c19         1.6775874630606344
    x159        c21         0.58335343852373611
    x159        c23         0.68826402254475139
    x159        c24         1.7487701649909817
    x159        c27         1.2157338353685891
    x159        c47         1.8822583488616629
    x159        c59         0.24206702270554173
    x159        c107         0.64833576005038929
    x159        c134         1.1225107626949822
    x159        c137         1.8660146004460636
    x159        c147         1.3199024828812811
    x159        c169         1.0148549635226909
    x159        c189         0.4476947980423257
    x160        obj        9.6977254690864125
    x160        c12         0.26431270285509983
    x160        c16         1.2232496724770141
    x160        c18         1.8263374088261868
    x160        c21         1.0561701960857623
    x160        c31         1.3927095998226109
    x160        c36         1.576970305681072
    x160        c40         1.63317887091437
    x160        c45         0.5295013037336268
    x160        c48         1.8202198307186892
    x160        c58         0.2534440836736544
    x160        c97         1.7839980942600744
    x160        c100         1.0991822513625886
    x160        c102         0.70788273485599684
    x160        c106         1.7300135994902059
    x160        c118         0.79617042352370271
    x160        c119         0.79720103366269301
    x160        c128         1.8986932580853622
    x160        c139         1.6904584578795745
    x160        c142         1.8157729331691435
    x160        c144         0.15978401110458612
    x160        c145         0.82956632413050235
    x160        c157         1.2150937904404731
    x160        c160         1.0940108541563252
    x160        c165         0.32660726232138615
    x160        c166         0.87622294654997612
    x160        c170         0.74295805720023023
    x160        c193         1.1735912774371848
    x160        c198         0.84832485955345127
    x160        c199         0.36202624895963331
    x161        obj        1.0966044194491671
    x161        c2         0.48838416099809479
    x161        c3         1.2570249809565075
    x161        c6         0.99168928832365777
    x161        c15         1.8736279178701443
    x161        c20         0.403749508784085
    x161        c31         0.8425336335568937
    x161        c33         1.2546424594419792
    x161        c65         1.1665552526266663
    x161        c76         0.41057727282804302
    x161        c99         1.8538022616831293
    x161        c104         1.2308665584242007
    x161        c117         1.2141770518209658
    x161        c130         0.44053695164866813
    x161        c150         0.91364959914429289
    x161        c161         0.56852466172170713
    x161        c178         1.3300164245050072
    x161        c195         1.500959996710727
    x161        c197         1.6965451503747566
    x162        obj        2.1984501028690637
    x162        c81         0.87481988767278362
    x162        c85         1.853672984366892
    x162        c90         1.526017973117773
    x162        c106         1.3947194469709949
    x162        c108         0.64126070617141195
    x162        c123         1.529070977872375
    x162        c132         0.21905699153223862
    x162        c163         1.3770464377040075
    x162        c165         0.59906952800074731
    x162        c170         1.3381459377490499
    x162        c194         1.1926900941421223
    x163        obj        3.1169553339195648
    x163        c4         0.45860509304541663
    x163        c13         1.8812631756445846
    x163        c19         1.5621349676913281
    x163        c22         0.9751267016312315
    x163        c33         0.2325024682079001
    x163        c34         0.92629100704344447
    x163        c41         1.6663122349569799
    x163        c44         1.5332368176452966
    x163        c45         0.70310732461986014
    x163        c49         0.49592179448129969
    x163        c78         0.51013375270297212
    x163        c79         0.49642150506533889
    x163        c84         0.99556706159693031
    x163        c86         1.7631081836466127
    x163        c87         0.83990413194175639
    x163        c124         1.0977411766919045
    x163        c126         0.20597851162642733
    x163        c134         1.4736631558457678
    x163        c158         0.66358205715045682
    x163        c160         0.83350289035881919
    x163        c163         1.461712111444609
    x164        obj        3.8370298632606712
    x164        c19         1.0469177504526173
    x164        c24         1.3971059628370581
    x164        c28         0.6382077233101463
    x164        c33         1.043489139917908
    x164        c40         0.70193172763466294
    x164        c49         1.1888434333000786
    x164        c64         0.16357525861150793
    x164        c106         1.6058500128038475
    x164        c113         0.66343152363613844
    x164        c117         0.92283909136354692
    x164        c146         1.9998257937094521
    x164        c158         1.5276903118348542
    x164        c179         0.68823341287096373
    x164        c190         1.566533373143089
    x164        c195         0.50487759111957597
    x164        c197         1.5583185487904543
    x165        obj        2.8634874544508033
    x165        c1         0.78692372215054829
    x165        c7         0.79221398412511757
    x165        c9         0.89274479933797657
    x165        c16         0.93170932262057682
    x165        c17         0.9600890739745388
    x165        c34         0.96105140135381906
    x165        c41         0.85402985226835926
    x165        c56         0.52923015765578896
    x165        c77         0.26360680614008214
    x165        c85         0.78953320007691008
    x165        c88         1.7538067507522994
    x165        c91         0.10796219119771605
    x165        c107         0.85433670690723607
    x165        c115         1.6185961539146181
    x165        c127         0.10554365166978451
    x165        c136         1.8050299018573814
    x165        c151         0.14290275779090228
    x165        c160         1.7448380990966017
    x165        c162         0.87547786679893869
    x165        c187         1.9339908850517473
    x165        c192         0.64459146227368025
    x165        c196         1.6149675246857107
    x166        obj        6.50251953621816
    x166        c10         1.9864039796348012
    x166        c11         0.99222702323335599
    x166        c34         0.19952344657184598
    x166        c46         1.5638247063340729
    x166        c54         1.8542737827229883
    x166        c91         0.46080293262502403
    x166        c93         0.57754836239841745
    x166        c96         1.9278249114336463
    x166        c124         1.8366170560298278
    x166        c135         0.36354350789411205
    x166        c148         1.5642629240064723
    x166        c161         1.3107643733564747
    x166        c174         1.3755109377777786
    x166        c198         0.42922264347396932
    x167        obj        3.1954161923443274
    x167        c0         1.0266735394742441
    x167        c12         1.9157479892703373
    x167        c14         1.0516002252940846
    x167        c18         0.78862157915514819
    x167        c22         0.72350901690395186
    x167        c25         0.39305177275760239
    x167        c38         0.55049537213704014
    x167        c41         1.8842157198340734
    x167        c60         1.8509406024134736
    x167        c64         1.6824698168524168
    x167        c85         0.86284683094280379
    x167        c92         0.69832493863351952
    x167        c96         0.74433396750108671
    x167        c102         1.1329974550812631
    x167        c103         0.84368982391728531
    x167        c106         1.0525374864603256
    x167        c114         0.95193662731651285
    x167        c121         1.7661591773370975
    x167        c127         1.011479857384078
    x167        c134         0.44912291824845396
    x167        c138         0.97430451049274525
    x167        c149         0.29779285797119204
    x167        c151         0.7997793203435104
    x167        c152         1.2290213813673565
    x167        c153         0.19848062026237973
    x167        c155         0.64037055318116565
    x167        c157         1.5422910064584761
    x167        c160         0.89318653552618243
    x167        c168         1.1547163578794355
    x167        c178         1.7842720253555362
    x167        c180         1.6116987214100604
    x167        c184         0.42366600760599904
    x167        c194         1.3446123673237564
    x167        c198         0.90044309054625304
    x167        c199         0.6809866289491755
    x168        obj        3.1205543714836042
    x168        c3         0.82518203573696691
    x168        c7         1.7459931993572728
    x168        c8         0.74288171927017299
    x168        c9         1.0625878594153495
    x168        c20         0.19122183296265202
    x168        c27         0.48256626053459017
    x168        c28         0.16377048954887752
    x168        c41         1.7008266626723461
    x168        c45         1.5945395921761139
    x168        c61         0.27085282291753765
    x168        c72         1.4940654412645193
    x168        c80         0.85060210572718953
    x168        c94         0.75487136192324333
    x168        c99         0.26768519532144308
    x168        c101         0.86320051371914785
    x168        c109         1.0230889307573545
    x168        c112         0.72313457222591759
    x168        c116         1.2439082757316056
    x168        c119         0.58837098282599043
    x168        c140         0.32592638604513657
    x168        c148         1.9972090593659038
    x168        c154         0.82832257579832103
    x168        c175         1.6232630200908806
    x169        obj        9.5562606854076559
    x169        c13         0.7748369522337224
    x169        c26         1.9561624461855402
    x169        c30         1.5736464298113377
    x169        c62         0.86445967860635142
    x169        c63         0.11723552496778822
    x169        c66         1.4872907244552664
    x169        c73         1.3920030666011449
    x169        c84         1.6470355248996771
    x169        c86         1.5356375315296333
    x169        c90         0.97877852126756226
    x169        c93         1.8791061359763037
    x169        c105         1.7074086602638983
    x169        c106         0.64253031853476739
    x169        c113         1.0653958411296383
    x169        c119         0.52991247938152031
    x169        c125         1.7638805417693075
    x169        c136         0.71808989198462059
    x169        c144         0.99573493150670678
    x169        c147         0.9356958079355745
    x169        c154         1.5676150013270682
    x169        c164         0.27220830141702673
    x169        c165         1.1056721969541963
    x169        c185         1.0969677600900578
    x169        c187         1.5332835234905475
    x170        obj        4.7897406140279397
    x170        c4         0.72076265503241044
    x170        c20         1.792880363494735
    x170        c32         0.34843124742064185
    x170        c46         1.6029634631412955
    x170        c51         0.4146026497568942
    x170        c57         1.3203879617251233
    x170        c67         0.61023305453663645
    x170        c78         0.72096506698467788
    x170        c79         0.87919792046865131
    x170        c93         1.9546194525728389
    x170        c95         0.1715757655491118
    x170        c96         0.80856871788468132
    x170        c97         0.61305694181912951
    x170        c116         1.3974662229387873
    x170        c141         1.3741982953979819
    x170        c143         1.6730574241539837
    x170        c144         0.32038502932781843
    x170        c150         0.86468987768893646
    x170        c158         0.10143218878074819
    x170        c160         1.3615745109455772
    x170        c170         1.9486636640469481
    x170        c185         1.2326554825402734
    x170        c192         0.66466462011022398
    x170        c196         1.6129932901647039
    x171        obj        5.8440300713476168
    x171        c13         1.7254146746130776
    x171        c22         0.94850864123089507
    x171        c32         0.74769063868727059
    x171        c47         1.5499451012037648
    x171        c48         1.9867967220243141
    x171        c53         1.728637527843246
    x171        c62         1.6959817447104262
    x171        c67         1.7900869482309321
    x171        c73         1.6755333863088302
    x171        c76         1.4732558480675533
    x171        c79         0.38656412764848236
    x171        c90         1.400136455892087
    x171        c95         0.13494458729988507
    x171        c97         1.5870019514487119
    x171        c105         0.24480144883506749
    x171        c121         1.3982606811974536
    x171        c127         0.46846443534489524
    x171        c133         0.87379380965198572
    x171        c145         0.69296690342713285
    x171        c153         1.3078565441142085
    x171        c175         1.3427898456907721
    x172        obj        6.2786583795894906
    x172        c0         1.2962578573984422
    x172        c6         0.62975671015071588
    x172        c21         0.52590705584373532
    x172        c22         1.4121851719990202
    x172        c33         1.8335532404850177
    x172        c36         0.61449555802723554
    x172        c38         0.500638154267669
    x172        c39         1.1526878153096582
    x172        c45         1.9980560830618626
    x172        c58         0.46682250321524843
    x172        c67         1.7861377092807407
    x172        c73         0.40699111536356214
    x172        c77         1.1092869700053654
    x172        c88         1.2908697595177587
    x172        c100         1.3804522430885422
    x172        c108         1.2364227193471986
    x172        c111         1.5050159736174751
    x172        c118         1.5140527539442354
    x172        c121         0.34129129024351701
    x172        c122         1.2291514323763613
    x172        c139         0.30895407835265953
    x172        c149         1.3781746129418333
    x172        c174         0.23306540892144492
    x172        c191         1.5043149614284737
    x173        obj        7.1013979059446601
    x173        c61         1.967302165122701
    x173        c77         1.1553584753050579
    x173        c84         0.96643336883179898
    x173        c89         0.73686487492117048
    x173        c91         0.78084607338436529
    x173        c93         1.7027125781172587
    x173        c110         1.1318845705818046
    x173        c116         0.58687315915508953
    x173        c129         0.60797615030987773
    x173        c136         0.47110245805509565
    x173        c138         1.9741389998029177
    x173        c140         0.97341263621837881
    x173        c171         0.22469724223824053
    x173        c181         1.370475430833398
    x173        c193         0.12358909803313778
    x173        c194         1.3012470615335814
    x173        c195         1.605544521142247
    x174        obj        3.8821129190747694
    x174        c3         1.7815651131970365
    x174        c4         0.1607015538999238
    x174        c8         1.2428329376960638
    x174        c13         1.8793876661009119
    x174        c20         1.059017976000961
    x174        c25         0.66135399949690798
    x174        c40         1.974659932067534
    x174        c46         0.24195623029658511
    x174        c73         0.24073057918913382
    x174        c74         1.0643612367304118
    x174        c84         0.56217836871041638
    x174        c85         1.5552295819074415
    x174        c91         1.3813225773956539
    x174        c98         0.62075666389413153
    x174        c138         0.54957034965228635
    x174        c167         0.81400469976661871
    x174        c172         1.4368575886000947
    x174        c190         1.5985937232794836
    x174        c196         0.41658933636323858
    x175        obj        7.4872624854335053
    x175        c28         1.1432951622346608
    x175        c65         1.6520194028387547
    x175        c81         1.5944145662423164
    x175        c98         1.5140228859932663
    x175        c104         1.5745690190846975
    x175        c128         1.5419299792085894
    x175        c135         0.66728288428600102
    x175        c147         0.67696093233377175
    x175        c162         0.23346748938906858
    x175        c181         0.99805331560583188
    x175        c182         1.2805781522315389
    x175        c186         0.87671505609175215
    x175        c193         0.29826946807991117
    x175        c194         0.65046337127217679
    x176        obj        9.2857359531338801
    x176        c18         1.31260481950081
    x176        c26         0.27166840309115181
    x176        c30         0.38364581036817258
    x176        c32         0.88624018761538792
    x176        c48         1.4538695644388502
    x176        c84         1.1968903675582114
    x176        c100         0.9990163923111105
    x176        c103         0.65600957661094061
    x176        c112         0.98654101778636971
    x176        c117         0.47294032599189995
    x176        c138         0.66721716044457424
    x176        c158         1.1899040236795111
    x176        c169         1.8041936870247659
    x176        c184         0.45791956138799483
    x176        c188         0.24458500814623466
    x177        obj        9.1155875431701485
    x177        c5         0.6234365329035938
    x177        c11         0.1009794388187866
    x177        c14         1.1550392956936306
    x177        c29         1.3602870373416049
    x177        c35         0.54915592885957787
    x177        c46         1.0460114677681571
    x177        c49         1.7547488023912812
    x177        c50         1.9139585195701432
    x177        c57         1.839412612332521
    x177        c61         1.4442511012499393
    x177        c62         0.6088176324369583
    x177        c70         0.48649389506087437
    x177        c74         0.12370796409765408
    x177        c104         1.1566490686943656
    x177        c105         1.025786930640201
    x177        c112         1.144797271335825
    x177        c125         0.2177302053568195
    x177        c135         1.7432210388160876
    x177        c155         0.44714033980536794
    x177        c189         0.69047042813425763
    x178        obj        7.8431222922943542
    x178        c4         1.6921033320828767
    x178        c11         0.55538916185795095
    x178        c17         1.70029984221778
    x178        c50         0.32800477306776815
    x178        c53         1.9739933617873326
    x178        c90         1.8548389147338153
    x178        c111         0.99174397620632093
    x178        c113         0.55563331923179093
    x178        c114         0.99631286015000375
    x178        c133         0.73477126823525085
    x178        c141         1.6010493552557183
    x178        c142         0.61118674448972288
    x178        c156         1.0997569649105787
    x178        c159         0.82926370285157425
    x178        c161         1.9109053468752979
    x178        c167         0.8455915361361912
    x178        c169         1.8233339898885514
    x178        c176         0.11129406835151695
    x178        c187         1.5920537666987808
    x178        c193         1.6970973395696962
    x179        obj        1.3168250485860176
    x179        c15         0.31128910650102204
    x179        c16         1.6963145658963841
    x179        c24         1.3763341451009108
    x179        c32         1.1940513560347437
    x179        c38         0.97183657542013524
    x179        c41         0.82026482552597424
    x179        c45         0.66435559917006792
    x179        c68         0.27876967756934146
    x179        c73         0.38195076963375718
    x179        c74         0.70695326415983206
    x179        c76         1.1865152436228392
    x179        c81         0.22017657083965342
    x179        c120         0.17178746287411495
    x179        c135         1.7265261362753046
    x179        c145         0.11247827639639525
    x179        c165         0.81028079505882422
    x179        c199         0.56016568116692467
    x180        obj        8.2175907272404416
    x180        c10         1.636728000568638
    x180        c25         1.8359534695240145
    x180        c33         0.52914211529558031
    x180        c39         1.7436694004649356
    x180        c43         1.4594945597136031
    x180        c56         1.7604229874351696
    x180        c59         0.56710214121462643
    x180        c60         1.7188104867066301
    x180        c62         0.40192732763157968
    x180        c65         0.57996924614439571
    x180        c69         0.91092276899727387
    x180        c77         1.0017512897093412
    x180        c95         1.3905690571782494
    x180        c107         1.8096862676413057
    x180        c112         1.3714692669940594
    x180        c125         1.0811336232634166
    x180        c126         0.97386494193687079
    x180        c162         1.0890363023178127
    x180        c166         1.4431598815793827
    x180        c173         1.2046352289872775
    x180        c181         0.58931351143905941
    x180        c193         0.9869847911207984
    x180        c197         1.5388871372006112
    x181        obj        7.0572022192633277
    x181        c4         1.4510158010240186
    x181        c23         0.74075448729951476
    x181        c33         0.41154110912936726
    x181        c46         0.39634141213771812
    x181        c65         1.8614260283265547
    x181        c70         0.19322878364007254
    x181        c76         0.83890569833677775
    x181        c82         1.3903603802568816
    x181        c89         1.3649228652866681
    x181        c94         0.41478215610987701
    x181        c96         1.8670010587076453
    x181        c99         1.6911191107768702
    x181        c124         1.7260454855378764
    x181        c189         0.19446238001321831
    x182        obj        4.1099938560978551
    x182        c24         1.126606836091717
    x182        c97         1.1453014216571817
    x182        c111         0.60857218931389889
    x182        c134         1.6420407390204639
    x182        c137         0.49137484124026864
    x182        c150         0.69832109489772642
    x182        c160         0.88596793048304789
    x182        c169         1.071745037283562
    x182        c182         1.6895701404364867
    x183        obj        5.553627692294997
    x183        c3         0.17517955658987272
    x183        c33         1.8531907805996992
    x183        c39         1.9579458658297715
    x183        c56         0.13548657246058587
    x183        c57         1.864601239414065
    x183        c59         0.17933663526882038
    x183        c68         1.1280187164834223
    x183        c70         0.71588749510458316
    x183        c84         0.63513138151613868
    x183        c89         1.3461516122454822
    x183        c93         0.88321522801104235
    x183        c106         1.249753367579066
    x183        c128         1.0623501393832218
    x183        c148         0.41006145688623941
    x183        c162         1.0255910444217249
    x183        c167         1.0270627312143779
    x183        c173         1.9980560077918879
    x183        c180         0.52414096471563343
    x183        c186         1.553418717995187
    x183        c188         0.49439078463286512
    x183        c192         1.9874350561025016
    x184        obj        8.6286734759642911
    x184        c14         1.5284372676723523
    x184        c19         1.946745146145896
    x184        c29         0.40528891056913352
    x184        c50         1.7423330546095068
    x184        c63         0.12149804077719958
    x184        c69         1.4384517784798945
    x184        c94         0.7562218865741801
    x184        c128         0.66818290711631445
    x184        c136         1.8037362114999063
    x184        c177         1.0544097943048318
    x184        c182         0.91459520855578791
    x184        c189         1.6545814432218828
    x184        c197         1.2384199477282318
    x185        obj        5.4757812119895029
    x185        c16         0.95871969118753164
    x185        c19         1.1524467441190571
    x185        c21         1.6888046288180421
    x185        c39         1.8651088013213404
    x185        c56         1.8955753448398733
    x185        c61         0.88150182518996367
    x185        c84         0.15007526324917034
    x185        c86         0.1194096083850968
    x185        c98         1.9831220378321113
    x185        c130         1.8987061172120996
    x185        c135         0.91491738204861695
    x185        c142         0.34962209692813639
    x185        c143         0.98940475915552961
    x185        c148         0.6418156036257926
    x185        c153         1.7163862866412958
    x185        c158         1.3716141552840126
    x185        c159         0.48761755806968865
    x185        c163         0.39084485482830977
    x185        c165         0.58117705923646334
    x185        c173         1.6968150281348762
    x186        obj        9.414953627356125
    x186        c0         1.7730323497200438
    x186        c4         0.90076621482283981
    x186        c15         1.4046753774488501
    x186        c29         0.43297199087445193
    x186        c43         1.6367046414794775
    x186        c48         0.32318696013826986
    x186        c52         1.6465810782446428
    x186        c55         1.6560337860547905
    x186        c74         1.4981475465391871
    x186        c76         1.0901292578911428
    x186        c80         0.92089124081396501
    x186        c85         0.75657049584422198
    x186        c97         0.18091693036536677
    x186        c121         1.3051767214053196
    x186        c123         1.0607441931800492
    x186        c133         1.7930911280466715
    x186        c134         1.6721444666225092
    x186        c136         1.6466625088801798
    x186        c137         1.9781694278566424
    x186        c139         1.9521635532023953
    x186        c154         1.2382950611007313
    x186        c167         0.1719887279063555
    x186        c169         1.3632191325574889
    x186        c171         0.97982083105648354
    x186        c180         0.88120987460571509
    x186        c186         1.4704255752785365
    x186        c189         1.1681404897094474
    x186        c192         1.5939124730856
    x186        c193         1.0447057497942183
    x187        obj        7.2655583147091187
    x187        c5         0.19401086734853465
    x187        c20         0.33899732651387771
    x187        c21         0.85363366745936675
    x187        c28         0.44101912851018543
    x187        c29         0.76349999665876189
    x187        c42         0.89384126165685995
    x187        c52         0.81883184352779681
    x187        c54         0.32593829740320934
    x187        c56         0.1638282578406845
    x187        c59         1.5225971680666526
    x187        c62         1.95169799373042
    x187        c64         0.434518260002562
    x187        c65         1.8355615925162041
    x187        c66         1.0256862411704846
    x187        c79         1.6131169259539471
    x187        c87         1.7002538962228335
    x187        c89         0.60405239850380255
    x187        c96         0.5022841405831957
    x187        c99         0.81809794597717556
    x187        c100         1.3676650380902065
    x187        c111         1.1448582471533366
    x187        c125         1.2994648631284713
    x187        c129         0.38606924729287251
    x187        c133         1.5576760340314872
    x187        c153         0.10462394787899232
    x187        c156         0.84778042218083871
    x187        c170         1.926915064536904
    x188        obj        5.771472431219097
    x188        c17         1.7197776349581853
    x188        c29         0.53040999956147672
    x188        c39         0.36126435987810324
    x188        c44         0.4082517793156446
    x188        c52         0.12281547068628811
    x188        c58         0.68480885280083525
    x188        c65         0.45701082543808103
    x188        c77         1.962083995377871
    x188        c91         1.468027581218613
    x188        c115         0.88953899801579395
    x188        c140         0.62440273685336589
    x188        c149         1.3857298429755069
    x188        c194         1.8423469508511559
    x189        obj        9.7688615198938056
    x189        c1         0.3326366920047622
    x189        c2         0.28592029615255249
    x189        c3         0.30804458191290357
    x189        c19         1.8979464001607982
    x189        c25         0.78705375590788396
    x189        c44         0.17080188983321895
    x189        c50         1.9821003539013047
    x189        c78         0.63849727858926897
    x189        c80         0.75064073702241541
    x189        c104         1.7284546230336137
    x189        c116         1.1692606401755565
    x189        c126         0.7022304476495338
    x189        c139         1.5091492963705821
    x189        c142         0.25025355022214402
    x189        c146         1.9635220856616231
    x189        c156         1.4153337233261281
    x189        c167         0.7941794590768777
    x189        c169         1.9613599078691868
    x189        c175         0.60645477780929602
    x189        c180         0.24294065826634306
    x189        c195         0.67957043261361283
    x190        obj        2.0574560786772547
    x190        c8         1.5976309373289519
    x190        c19         1.3285042709811206
    x190        c29         1.5147707748576154
    x190        c40         1.2485550076812524
    x190        c49         0.81181265006269654
    x190        c66         1.5061642274546658
    x190        c67         0.17196336198038278
    x190        c80         0.34093250758001792
    x190        c109         1.6459383768565998
    x190        c121         1.2999102491098684
    x190        c122         1.1242841685694231
    x190        c126         0.35314103541687447
    x190        c139         1.2703218534373484
    x190        c144         0.83604115921538735
    x190        c152         0.79900143523184486
    x190        c169         1.82604705290574
    x190        c173         1.1036083176153046
    x190        c188         0.41007633794153853
    x191        obj        5.5844364373521707
    x191        c12         0.31264514531475623
    x191        c13         1.9231597678979186
    x191        c34         1.2263104799782294
    x191        c47         1.32728268982567
    x191        c55         0.62162164044830481
    x191        c63         1.3999601978634642
    x191        c73         1.2242997710158654
    x191        c94         0.86141881107942475
    x191        c97         1.9352972935513526
    x191        c139         1.6413061124409785
    x191        c179         0.70749619718386625
    x191        c196         1.5266767555693748
    x192        obj        5.1842042001246282
    x192        c9         0.83475489468440278
    x192        c15         1.0428061548782523
    x192        c31         1.0901236162816204
    x192        c32         1.3105400490838399
    x192        c38         1.8818857930543382
    x192        c47         1.4281629222510259
    x192        c64         0.22244330241889931
    x192        c91         0.14684110403811748
    x192        c95         1.4570346465736725
    x192        c98         1.6881801845416666
    x192        c141         0.60621090375332476
    x192        c157         0.77499237347796346
    x192        c170         1.8679586376213473
    x192        c178         0.67487222795929735
    x192        c196         1.9704021816686881
    x192        c198         1.1841964601900214
    x192        c199         1.9029195657142941
    x193        obj        6.5188449464039735
    x193        c18         0.81669047936402961
    x193        c19         1.1063622691228683
    x193        c22         0.66127726645837637
    x193        c24         0.34858320617993788
    x193        c34         0.36244678104628425
    x193        c38         0.12820779800172361
    x193        c62         0.76181702786962535
    x193        c88         1.0677993653893951
    x193        c101         1.2606636466823773
    x193        c115         1.8127428238242649
    x193        c116         1.9523308362307543
    x193        c140         0.3181856799114694
    x193        c144         0.53441741590943526
    x193        c154         1.9914105805569673
    x193        c160         0.18650034117382303
    x193        c168         1.99598679587018
    x193        c171         1.2648959142440646
    x193        c173         1.5473127007997236
    x193        c181         1.4378905362350782
    x193        c197         0.1757173934017939
    x193        c199         0.2096563637896724
    x194        obj        9.179940271414921
    x194        c9         0.31532413562490208
    x194        c21         0.23113103199770932
    x194        c22         1.3668630946707174
    x194        c24         1.949240186379666
    x194        c29         1.5280098915693519
    x194        c34         0.5489151963203891
    x194        c48         0.64892273333353379
    x194        c52         0.62634557269294622
    x194        c64         1.9225584621702287
    x194        c69         1.4460357724554278
    x194        c75         1.1805510084014847
    x194        c79         0.35485682033980126
    x194        c83         0.4849270459301871
    x194        c107         0.52437481365874739
    x194        c115         1.6501279882188888
    x194        c119         1.3224701131872625
    x194        c145         1.2245249732405061
    x194        c148         1.3565621408393194
    x194        c159         1.8196582953221918
    x194        c161         0.32035447769765779
    x194        c194         0.25202003809997331
    x194        c195         0.24992689019346798
    x194        c196         1.2438107029396293
    x195        obj        8.8910477327711508
    x195        c60         1.8568530984090996
    x195        c67         1.6113708682055217
    x195        c80         1.4728186637737353
    x195        c83         1.3019805667015052
    x195        c86         1.8229539714222063
    x195        c99         0.38064879844901234
    x195        c104         0.99781646924957834
    x195        c112         1.1316883293510926
    x195        c118         0.47967449052194489
    x195        c133         0.42647077286246937
    x195        c140         0.66007966177530153
    x195        c147         1.4117198895971419
    x195        c155         0.70392710431455296
    x195        c173         0.57397153800653089
    x195        c176         1.3324918316909597
    x195        c192         1.5170571135173114
    x195        c196         0.25055175085985792
    x196        obj        1.658193639314731
    x196        c6         1.2337381728987336
    x196        c13         0.60254853654316998
    x196        c25         1.775679339443893
    x196        c28         0.27352650934012052
    x196        c34         0.79290048191947071
    x196        c36         0.28394073455503344
    x196        c45         1.8431210333141381
    x196        c83         1.5884268557490384
    x196        c94         0.72467449490932723
    x196        c97         1.2235858840264124
    x196        c101         1.046824614527927
    x196        c110         0.48661563962300558
    x196        c112         0.66883588258267557
    x196        c124         0.67192731913575143
    x196        c171         1.5359178281059223
    x197        obj        3.4402248763307961
    x197        c1         1.4138436473572824
    x197        c4         1.102137823777712
    x197        c13         1.5624246822549119
    x197        c14         1.5386501281243419
    x197        c36         0.39513479510085736
    x197        c44         0.61810336883723649
    x197        c56         0.24717649639838066
    x197        c60         1.4644055525590187
    x197        c72         1.2015181330502203
    x197        c78         0.40872337597191777
    x197        c85         0.13733825666636412
    x197        c90         0.43898732328810308
    x197        c105         1.7490838089014333
    x197        c118         0.4203153449917304
    x197        c130         1.2395998791215221
    x197        c131         0.87829013163700809
    x197        c146         1.862547442165708
    x197        c165         0.98506073230862701
    x197        c182         1.2497829069573401
    x197        c186         0.54768489056919112
    x197        c187         1.0568192862315291
    x198        obj        1.4981567587994413
    x198        c1         1.726783675870271
    x198        c5         1.3038673144455926
    x198        c8         0.68895368164620197
    x198        c18         1.9730949757969081
    x198        c28         0.29474118841126518
    x198        c43         1.8573511664766675
    x198        c48         1.9489445990555219
    x198        c57         0.66664237188449738
    x198        c97         1.7999197630673966
    x198        c106         1.9675895043740517
    x198        c135         0.95356733182397679
    x198        c140         0.62128307241111347
    x198        c157         1.775796102616894
    x198        c176         0.13574087204283997
    x198        c181         0.76307848162459091
    x198        c187         1.1785739290460264
    x198        c189         1.7431296442782891
    x198        c195         1.5813474900625184
    x199        obj        9.9693852015869258
    x199        c8         1.7151385466503561
    x199        c10         0.88054413529805042
    x199        c43         0.65743915912901185
    x199        c61         0.83592322037025812
    x199        c62         0.18494542358306731
    x199        c75         0.31685422919474349
    x199        c77         0.90197757284537594
    x199        c87         1.8071033595044317
    x199        c107         1.3276006206863868
    x199        c114         1.2261999967301915
    x199        c117         1.5987802524668806
    x199        c160         0.75890318674049551
    x199        c169         1.7610786202591908
    x199        c172         1.960763599377876
    x199        c180         1.0101701129255611
    x199        c195         0.68486197774039803
    x199        c198         1.4982643548107328
    x200        obj        9.6065673608499473
    x200        c4         0.17625625124500216
    x200        c8         1.9127958338606386
    x200        c17         1.9242408082774451
    x200        c25         1.4325483002117185
    x200        c26         1.6718375016661271
    x200        c58         0.29704884009693788
    x200        c64         0.3403863820436247
    x200        c71         0.79718576770656813
    x200        c78         1.6611198596069516
    x200        c85         0.30685196050034846
    x200        c87         0.20223261097864254
    x200        c97         0.48366886682452159
    x200        c111         1.3333489889233889
    x200        c121         1.4600461550372976
    x200        c133         1.9743504371877496
    x200        c153         1.4193038355403593
    x200        c155         0.27258296299059182
    x200        c158         1.0773724558822981
    x200        c177         0.80601807733793396
    x200        c192         1.995092635410588
    x200        c193         1.8979141704071814
    x201        obj        8.8346094983681169
    x201        c3         1.1107767973261762
    x201        c8         0.17293631674823179
    x201        c9         0.79336143656167779
    x201        c63         1.6392123270322176
    x201        c68         1.1160344566235494
    x201        c75         0.49283032458731479
    x201        c79         0.15016561516088056
    x201        c123         0.17557386660927227
    x201        c124         1.6447816311890322
    x201        c139         0.66064994292485724
    x201        c151         1.314938094360768
    x201        c170         0.77406797609524869
    x201        c171         1.6599721951390229
    x201        c191         1.7283667944288859
    x202        obj        8.7036015569606526
    x202        c12         1.8113175126040446
    x202        c55         0.77047366554295105
    x202        c64         0.55648027678492851
    x202        c89         0.27313430006514799
    x202        c99         1.1974927412682586
    x202        c110         0.5264959726015529
    x202        c119         0.3426346998076093
    x202        c125         1.1262282748082391
    x202        c133         1.3599801139675172
    x202        c137         0.34618668975971756
    x202        c143         0.40170625009236971
    x202        c166         1.7639544656423236
    x202        c169         0.53767909696819782
    x203        obj        3.83093783356051
    x203        c5         1.2677790423494717
    x203        c24         0.20692433209221867
    x203        c37         1.7893548740929424
    x203        c44         1.1275022244608759
    x203        c58         1.7413059205042649
    x203        c59         0.47137082954127429
    x203        c62         1.5754776711269707
    x203        c69         0.78677823483362452
    x203        c90         0.10154716892139688
    x203        c97         0.51601617568428682
    x203        c131         0.3002519617101076
    x203        c134         0.90308180304276375
    x203        c145         1.2258522734569117
    x203        c151         0.42150242612376265
    x203        c177         1.8241543068108272
    x203        c187         1.998538434339191
    x203        c189         0.69310517466302801
    x203        c193         0.4984035550234035
    x204        obj        5.4477122542896135
    x204        c3         1.529571311739897
    x204        c5         0.63805382892587548
    x204        c7         0.96271301515418639
    x204        c44         0.10622617671982017
    x204        c51         1.5185956547981627
    x204        c63         1.2389923890149184
    x204        c77         1.6285048933485182
    x204        c83         1.3976042011544152
    x204        c94         1.8159728414524221
    x204        c98         1.4730772306545523
    x204        c104         0.70523993567332433
    x204        c113         1.8785670922359257
    x204        c124         0.34013439809179591
    x204        c129         0.57011505902681892
    x204        c133         1.3501330119812753
    x204        c135         1.7515641753226896
    x204        c145         0.10997500730975633
    x204        c156         0.89186065580732676
    x204        c168         0.24060704597150634
    x204        c172         1.769742562383541
    x204        c175         0.67654177697102047
    x204        c195         1.5957359659712267
    x204        c198         0.83331493627377973
    x205        obj        9.5189689002007363
    x205        c0         1.1236820295524796
    x205        c5         1.0494267594362541
    x205        c16         0.57952787653268922
    x205        c19         1.8039760511727541
    x205        c20         1.0488101751265915
    x205        c41         1.0968936937601734
    x205        c46         1.6166875123122491
    x205        c66         1.7491081077476296
    x205        c73         1.1953537816776807
    x205        c76         1.6291989536220524
    x205        c86         1.8415215581057611
    x205        c87         1.1359978404417233
    x205        c107         1.8290487511590436
    x205        c135         0.52226985189779307
    x205        c137         1.2471141924997757
    x205        c139         1.2045502028050146
    x205        c146         1.0513979955251587
    x205        c170         0.72021212564585635
    x206        obj        6.6620566202932876
    x206        c4         1.2296054460207155
    x206        c24         1.2930637936757121
    x206        c26         0.42077786404041129
    x206        c41         0.64833324553258109
    x206        c55         0.35225002878314859
    x206        c58         0.73696385118329033
    x206        c71         0.90392129236162388
    x206        c72         1.6756745572297047
    x206        c78         1.5610305360638297
    x206        c81         0.63227775118139262
    x206        c105         1.8497078027633005
    x206        c131         0.19284166567387925
    x206        c133         1.2403811179880306
    x206        c163         1.5143407490769856
    x206        c164         0.66866351035991867
    x206        c166         0.7159894364894136
    x206        c167         1.9870084370389549
    x206        c168         0.51497494137731514
    x206        c171         1.7827031871645838
    x206        c172         1.6539774301584307
    x206        c177         1.6080594190247532
    x206        c196         1.7820109217735525
    x207        obj        7.392064022502554
    x207        c9         0.17583837175562436
    x207        c20         1.4874440421194133
    x207        c30         0.46647996475224884
    x207        c42         1.681768135188263
    x207        c44         0.28951157456068921
    x207        c52         1.0204207631554829
    x207        c56         0.65183831133100145
    x207        c70         0.25534380562075654
    x207        c74         1.3635934597888668
    x207        c87         0.29691428274314058
    x207        c122         1.5858803122697687
    x207        c128         1.8121228650547108
    x207        c137         0.46827974477992573
    x207        c139         1.3608864810463226
    x207        c144         1.7700298026922223
    x207        c147         1.2485408962410651
    x207        c150         1.2013829202249988
    x207        c180         0.71287037844213508
    x207        c188         0.47568653153455687
    x208        obj        1.5586877604947498
    x208        c15         0.55844887902111451
    x208        c30         0.96555152301286895
    x208        c36         1.0900729578169512
    x208        c39         0.72732024241645921
    x208        c41         0.74838647706666173
    x208        c50         0.32189168940758772
    x208        c61         0.44944782364096625
    x208        c67         0.35995072497435932
    x208        c75         1.1890978380856352
    x208        c85         1.8903727963000081
    x208        c88         0.51075115917288572
    x208        c107         0.30046435533937532
    x208        c112         1.2802752455663193
    x208        c117         1.9782905748622401
    x208        c120         1.9079204174979614
    x208        c164         1.6201989287292022
    x208        c171         1.8629058259532778
    x208        c175         0.38027457803114428
    x208        c186         1.8943883183142503
    x208        c188         1.1530861676621433
    x208        c190         0.49432874891003731
    x208        c193         0.12732822120027376
    x209        obj        3.4891487649550434
    x209        c0         1.8506724091323947
    x209        c2         1.6209640788197262
    x209        c19         0.13437198903229375
    x209        c33         0.38772461184741114
    x209        c36         0.4632645766565493
    x209        c55         1.1838101342336882
    x209        c64         1.1404872404647923
    x209        c81         0.56793202667797693
    x209        c102         1.0273957834304235
    x209        c104         0.48405921056986834
    x209        c106         0.29826454853002221
    x209        c113         0.15163291925822728
    x209        c143         0.50236227226619579
    x209        c160         0.9435933518744497
    x209        c171         1.9133871520734016
    x209        c173         1.372931399220922
    x209        c174         1.2883093091811939
    x210        obj        9.163528482521258
    x210        c0         0.83596580201357762
    x210        c7         0.9746440688578023
    x210        c12         0.91891146538285484
    x210        c14         1.4904503220767646
    x210        c27         0.74678882863992069
    x210        c31         1.8015718484778311
    x210        c33         1.5302183288368336
    x210        c59         1.4645656470636332
    x210        c81         0.15724037684211037
    x210        c86         0.34972497455837304
    x210        c99         0.30346196300388079
    x210        c111         1.5324941950357915
    x210        c129         1.2472451990257294
    x210        c131         1.7547338519652071
    x210        c138         1.4721789650109953
    x210        c141         0.54799500892664144
    x210        c142         1.3654012024466891
    x210        c143         1.6381920246514163
    x210        c149         1.6130022252957479
    x210        c151         0.39134320584682103
    x210        c159         0.17185090026705269
    x210        c162         1.811342293174564
    x210        c168         0.75091619137281196
    x210        c186         0.43264660439214664
    x211        obj        6.4489216390135526
    x211        c4         0.40136203904703172
    x211        c14         1.4879133425518658
    x211        c36         0.53277221796208118
    x211        c37         0.1032803299808364
    x211        c45         0.26993501722047553
    x211        c59         0.92557181973243141
    x211        c75         1.8411493732534061
    x211        c76         0.88473252839061545
    x211        c96         1.2115119070714304
    x211        c123         1.6706937292334918
    x211        c125         1.5212153699992723
    x211        c127         1.5628730252376049
    x211        c133         0.8210806216918427
    x211        c141         1.7328337979566661
    x211        c143         0.20777793592012495
    x211        c144         0.95089586975458817
    x211        c149         0.11006825025451959
    x211        c161         1.5036765500766165
    x211        c169         1.9348713187592816
    x211        c178         0.36809970326397023
    x211        c179         0.63055318549011041
    x211        c181         0.52377925228511957
    x211        c184         1.0770489068868216
    x212        obj        9.4881378767942142
    x212        c2         0.53334201512461943
    x212        c6         0.81894982678228545
    x212        c9         1.9683206927597177
    x212        c15         1.0250586936009318
    x212        c42         1.3061666566295129
    x212        c60         0.93646802157634768
    x212        c64         0.79921583051751532
    x212        c65         0.75078543872640613
    x212        c73         0.89737626912974899
    x212        c83         1.9385449830926482
    x212        c93         1.1745468513038522
    x212        c97         0.365153461377834
    x212        c108         1.861271861720815
    x212        c117         1.1485136304669268
    x212        c120         0.14939061166320497
    x212        c126         0.36989941196796472
    x212        c133         1.3278909349759369
    x212        c146         1.4907395905814795
    x212        c156         1.2377409509904331
    x212        c158         0.47184153085492497
    x212        c188         1.7612340933603052
    x212        c193         1.1947129389359725
    x213        obj        2.614500844654104
    x213        c2         0.6266474025432901
    x213        c5         1.8397072346019381
    x213        c10         0.46796747287702056
    x213        c11         0.84619418418118719
    x213        c14         1.9159363463782104
    x213        c25         0.26968089827908387
    x213        c44         0.96502263271086908
    x213        c47         1.977316095590139
    x213        c49         1.8099481518630018
    x213        c50         0.75988472169252252
    x213        c56         0.87954054540536308
    x213        c88         0.78805667027787729
    x213        c130         0.36569816163704583
    x213        c137         1.0655543227641944
    x213        c149         0.1998297366945872
    x213        c155         0.17902801348393488
    x213        c160         0.92903069418936757
    x213        c179         1.8588676522050327
    x213        c188         0.14400553020528617
    x214        obj        4.9012498931464421
    x214        c8         1.8726782348352236
    x214        c12         1.0677399024819547
    x214        c14         0.94724236172901466
    x214        c26         1.5444832145239455
    x214        c30         1.0223427244827974
    x214        c52         1.1536078641469516
    x214        c53         0.33770794612170074
    x214        c57         1.968854994030431
    x214        c68         1.8232942374613152
    x214        c72         1.6677174040726719
    x214        c76         0.10471160418358258
    x214        c77         1.6874175657656665
    x214        c91         1.2248478766146813
    x214        c117         0.3095163882629659
    x214        c122         0.52729742623418385
    x214        c131         0.73958005201303245
    x214        c153         0.15172888738569326
    x214        c159         1.4842697522374695
    x214        c160         0.42911887173127239
    x214        c162         0.37415346723142118
    x214        c166         1.2218243434015497
    x214        c173         0.37488553109782707
    x214        c175         0.72757690800315367
    x215        obj        1.1212296530605397
    x215        c1         0.57924535426345436
    x215        c16         1.4767158346865643
    x215        c50         1.1831015102015781
    x215        c59         1.8892463228168463
    x215        c74         0.26646351490236275
    x215        c92         1.1532918226045406
    x215        c104         1.827344795649906
    x215        c105         0.57878213123847566
    x215        c113         1.6860750998572427
    x215        c114         0.74937873423443591
    x215        c115         1.9180959899127104
    x215        c119         1.9429397613566828
    x215        c120         1.2073782692363846
    x215        c127         0.76118764832653474
    x215        c150         1.7889932508839088
    x215        c152         0.25082607116894901
    x215        c153         1.2464227703154294
    x215        c157         1.1298040382284571
    x215        c158         1.6811136134072058
    x215        c174         0.44119066671862217
    x215        c177         1.9773224637239499
    x215        c184         0.32413659300713077
    x215        c190         0.27795249377580411
    x215        c195         0.1109934654308305
    x216        obj        2.6981978040145069
    x216        c5         1.709052715105789
    x216        c16         0.80056596375012956
    x216        c27         0.10467867650214181
    x216        c56         0.1733126424911843
    x216        c57         1.0367710656754197
    x216        c62         1.1468721161488982
    x216        c68         1.9243625848833759
    x216        c73         1.1261957084537788
    x216        c112         1.3781088842255653
    x216        c128         1.7713558954229143
    x216        c133         0.4943887524912346
    x216        c144         1.9051273961298287
    x216        c146         1.2159723729324308
    x216        c151         0.26577562341709554
    x216        c168         1.3170333366967784
    x216        c183         0.97232767442308343
    x216        c197         0.77631728430288816
    x217        obj        1.5317932402506125
    x217        c1         1.1555755644346586
    x217        c4         1.8451432153164136
    x217        c24         1.5928096283318416
    x217        c37         0.97828378433637131
    x217        c44         1.4837256061942876
    x217        c52         1.3246802680441312
    x217        c58         0.97682054128176821
    x217        c67         1.409672937892267
    x217        c96         1.3941386309786623
    x217        c128         1.5463758951741102
    x217        c155         1.7956284937391056
    x217        c159         0.6338204663269329
    x217        c174         0.23935574778147184
    x217        c177         1.6047842818034805
    x217        c178         1.3575964499756772
    x217        c180         1.3280813961966558
    x217        c190         0.95906629095351659
    x218        obj        5.3105110492512297
    x218        c44         0.545133342836297
    x218        c63         0.77539175422444118
    x218        c64         1.8280270487053278
    x218        c72         0.30636335352928379
    x218        c79         0.82898631920852528
    x218        c90         0.63761423604259937
    x218        c99         0.36684155202740554
    x218        c106         1.4481882436490174
    x218        c109         1.3279037684403956
    x218        c123         1.7622123334504556
    x218        c131         0.6701475943535754
    x218        c161         1.8539616796086684
    x218        c182         1.0644894630190533
    x218        c188         1.9376899538433698
    x219        obj        7.8676421603538067
    x219        c3         0.3146451883248248
    x219        c8         0.9839649898520062
    x219        c30         0.76572824423564056
    x219        c31         0.9485205521714174
    x219        c37         0.9230670134310961
    x219        c40         1.8636735192224771
    x219        c43         0.80176795964755343
    x219        c51         0.70876466666419924
    x219        c53         1.5752562469488913
    x219        c121         0.3669972209446597
    x219        c130         1.6168270308672787
    x219        c131         0.51014695815492117
    x219        c141         0.2103908915123478
    x219        c145         0.80117212083604872
    x219        c154         1.0053743698341087
    x219        c155         0.56085443211159469
    x219        c163         1.747727922929833
    x219        c183         0.10757604981732699
    x219        c185         1.1386654646718368
    x219        c189         0.90394549763153564
    x219        c196         0.66445396094317022
    x219        c197         0.8910150254744259
    x219        c199         1.3279686428566029
    x220        obj        9.0100865595842343
    x220        c3         0.51134974643827991
    x220        c28         1.2030418137668488
    x220        c30         0.56468077261406768
    x220        c40         0.88720030030208652
    x220        c46         0.13288998198714391
    x220        c54         0.25930163056130906
    x220        c72         1.3932925623884185
    x220        c73         1.9990018107456833
    x220        c80         0.53896278626464178
    x220        c91         0.83250032429445009
    x220        c102         1.2552341685486248
    x220        c109         0.16334469165736115
    x220        c115         0.29061269620546037
    x220        c121         1.1530213243979024
    x220        c129         1.1755992087253202
    x220        c144         0.9033794327129876
    x220        c168         1.8589849297157188
    x220        c170         1.0739970629255233
    x220        c178         0.32159667141954423
    x220        c182         1.8024464906528386
    x220        c183         0.35547242886086805
    x220        c187         0.35620932576108344
    x220        c189         1.0431574542800111
    x221        obj        7.6686630752777578
    x221        c42         1.2114239900734831
    x221        c45         1.1366918787140727
    x221        c51         1.9966586491592586
    x221        c53         0.80698202601084501
    x221        c56         1.7644441390187218
    x221        c65         1.2353108500461769
    x221        c70         0.91376991150395448
    x221        c99         0.72558331961532752
    x221        c115         1.1639875297996212
    x221        c120         1.1530883278068105
    x221        c127         1.1727089933871797
    x221        c134         0.89412619168339502
    x221        c165         1.5772823178766091
    x221        c180         1.2666417377375609
    x222        obj        6.6926233454950594
    x222        c1         0.21610289941865862
    x222        c3         1.761091754321892
    x222        c6         1.6657854434749346
    x222        c9         1.3917017460519332
    x222        c10         1.6105134889883961
    x222        c14         0.36119548675361413
    x222        c25         0.85632189850649787
    x222        c32         1.9464306111773952
    x222        c65         0.74817083039032228
    x222        c70         1.997625701106581
    x222        c109         0.78887448155449424
    x222        c118         1.7347477144997001
    x222        c121         0.84431528111501308
    x222        c123         1.165463308307553
    x222        c137         1.5627736168106157
    x222        c153         0.81342139291973836
    x222        c173         1.5424180233248772
    x222        c178         0.88769952919120776
    x222        c181         0.55570544646357978
    x222        c182         1.1612229704705053
    x223        obj        9.2343702620383823
    x223        c2         0.19014366831191809
    x223        c17         1.1935512783490034
    x223        c23         0.49049084522080588
    x223        c32         1.854932502830885
    x223        c34         1.0175927880556805
    x223        c42         1.1235748421840723
    x223        c47         1.5201103668989815
    x223        c50         1.9883847479345478
    x223        c53         1.7039835048188237
    x223        c85         0.62344118643450608
    x223        c96         0.27216091029986705
    x223        c110         1.2327630261136739
    x223        c114         1.4074467060360183
    x223        c120         1.1380123417938395
    x223        c136         0.56675559512138718
    x223        c170         1.125757759880224
    x223        c173         1.2285480132869442
    x223        c176         0.24614846408239879
    x223        c191         1.718223470415992
    x224        obj        7.6791698660792198
    x224        c0         1.8650922269096617
    x224        c9         0.67843553246027299
    x224        c26         1.2420421876362486
    x224        c45         0.83831433659890331
    x224        c57         0.4464463480248384
    x224        c73         1.9859063660859984
    x224        c86         1.1565306924121213
    x224        c90         1.5269215610003095
    x224        c105         1.9493485948327129
    x224        c108         0.49610821243208558
    x224        c119         1.4154053946493084
    x224        c124         0.29728339189733316
    x224        c138         1.3371183541333438
    x224        c145         1.5955859868818554
    x224        c148         0.41529704718472715
    x224        c158         1.9721722280566862
    x224        c174         0.74502478750015411
    x224        c192         1.9543618974798855
    x225        obj        1.8735571269494571
    x225        c10         0.62058985160336333
    x225        c16         0.10133602285605352
    x225        c51         1.0265047866410184
    x225        c55         0.58334502942840172
    x225        c73         1.0733808332077837
    x225        c74         0.91318984040853757
    x225        c77         1.9825300703924116
    x225        c109         1.4394471476422943
    x225        c110         0.89680910392762703
    x225        c125         1.0831228215442654
    x225        c135         1.1270398998904474
    x225        c158         1.7356834935082237
    x225        c165         1.1412845622419925
    x225        c178         1.1926956747403017
    x226        obj        9.0968630735575395
    x226        c5         0.69003999645926184
    x226        c7         1.1081437981706652
    x226        c14         0.71740350268109176
    x226        c29         0.97159429478402015
    x226        c34         1.5618515289205921
    x226        c37         0.34799741195552159
    x226        c59         1.9790996442426434
    x226        c66         1.002037893767278
    x226        c73         0.74683798197776596
    x226        c78         1.5922827522235499
    x226        c89         0.36700821765642511
    x226        c91         0.16130312875018837
    x226        c99         0.20926599470559418
    x226        c113         1.4729025711016739
    x226        c116         0.97625707849809673
    x226        c117         0.17977855097207945
    x226        c121         1.1360934822810591
    x226        c162         1.9620975409164638
    x226        c163         0.21213775656151851
    x226        c165         0.48774496406569423
    x226        c169         1.9902110914435061
    x226        c177         0.47080906799165168
    x226        c181         1.6701299110096963
    x227        obj        3.9570931364714697
    x227        c13         0.17810645904930023
    x227        c15         1.8789712044961286
    x227        c21         1.8070726080390886
    x227        c35         0.30500624755008321
    x227        c38         1.5865970396983604
    x227        c53         0.48625183095015378
    x227        c54         1.1222351709325209
    x227        c64         0.5925965836298952
    x227        c79         1.3559811565725852
    x227        c88         0.23688814194221949
    x227        c100         1.1133732053011378
    x227        c152         0.72879465900416274
    x227        c158         0.2108104889339332
    x227        c171         1.9941513685577714
    x227        c183         0.57027889651643893
    x227        c184         0.38572112735681696
    x227        c186         0.54826394195107453
    x228        obj        3.2223501451202377
    x228        c6         1.920248822970676
    x228        c23         0.86336991090873394
    x228        c43         1.1643379610093612
    x228        c69         1.7229663898783378
    x228        c71         0.41290332721463063
    x228        c74         1.5474496993798368
    x228        c75         1.7474758041463294
    x228        c82         0.93296986402141635
    x228        c83         0.16863470224322796
    x228        c87         1.1891770454367929
    x228        c90         1.0598861412172431
    x228        c97         0.17824801206543212
    x228        c100         0.75773883857727742
    x228        c110         1.4703370696459348
    x228        c130         0.75201473409090913
    x228        c132         1.3862148996410726
    x228        c138         1.6819589251207239
    x228        c163         1.1989012680427333
    x228        c167         0.53960045258659428
    x228        c168         0.56169646263969697
    x228        c188         0.53335347092754459
    x228        c192         0.66890729019393735
    x229        obj        4.3872883861585512
    x229        c46         1.0163063618849781
    x229        c51         1.7819405406571387
    x229        c52         1.6877730041573027
    x229        c64         0.476494231941894
    x229        c74         0.14490986529135874
    x229        c76         0.32769711852031569
    x229        c77         0.63906755920737301
    x229        c98         1.4951809711302328
    x229        c109         1.9724304830954857
    x229        c115         0.14017243001491361
    x229        c130         1.3668512730994893
    x229        c140         0.72513306333245264
    x229        c157         0.58145599150087424
    x229        c194         0.63793671106613337
    x230        obj        2.801900390020549
    x230        c5         1.2112863662817621
    x230        c9         0.89512643587394847
    x230        c10         0.26686781881936428
    x230        c31         1.6869112625125668
    x230        c42         1.215500649329651
    x230        c44         1.8346506765566584
    x230        c54         0.49635576066439746
    x230        c66         0.31748162811656611
    x230        c69         1.6978562364652858
    x230        c72         0.96758362670289677
    x230        c119         1.2244486324428154
    x230        c124         0.27391678124446084
    x230        c137         0.22980109807021745
    x230        c140         1.1118072753470252
    x230        c146         0.43362742174612345
    x230        c151         1.6090274486069609
    x230        c152         1.0154882055197114
    x230        c173         1.2943175821779336
    x230        c179         0.6064661621739541
    x230        c181         0.56663011998325097
    x231        obj        2.5835734050066832
    x231        c1         0.52776834344412371
    x231        c5         0.68716597893469444
    x231        c9         1.8086623544937286
    x231        c11         0.60924575763660005
    x231        c20         0.96359123598763097
    x231        c23         1.1845812995459981
    x231        c39         1.1680107203664405
    x231        c40         1.5122084809840288
    x231        c45         1.051875085525362
    x231        c51         1.9948301850893932
    x231        c60         0.48989333106347999
    x231        c90         1.8181126125071916
    x231        c95         0.81404255180894114
    x231        c96         0.33974277399012981
    x231        c114         0.20564190435020344
    x231        c116         0.28252036092392374
    x231        c119         0.39673874942786425
    x231        c121         0.67434669436031025
    x231        c126         0.47679170440015095
    x231        c153         0.34981235972759794
    x231        c163         0.12063315492602159
    x232        obj        6.9103377296500925
    x232        c3         0.22820700677897079
    x232        c8         1.7508263406736384
    x232        c17         1.201879429085404
    x232        c65         1.9323753292912074
    x232        c67         1.9365144475001814
    x232        c78         0.43933329810023525
    x232        c91         0.37452555400192189
    x232        c96         0.75336604122547757
    x232        c97         0.26666758228156617
    x232        c110         0.50679608334033632
    x232        c120         1.6354862444609
    x232        c133         0.79087826509682779
    x232        c139         1.4896282205006823
    x232        c140         1.0518080945323987
    x232        c145         0.23146367197666742
    x232        c152         0.58175352260501678
    x232        c165         1.2240151451525998
    x232        c174         0.50580467118222727
    x232        c180         0.48194573248147687
    x232        c182         0.84115048660290115
    x232        c187         1.2726250338591467
    x233        obj        2.7015105270697148
    x233        c30         0.14263471664266902
    x233        c65         0.87221095048592578
    x233        c71         1.6861153237654434
    x233        c78         1.0239279265440107
    x233        c90         1.3699969487525621
    x233        c113         0.89535641898165919
    x233        c114         1.5494625371538027
    x233        c118         0.37253779721179092
    x233        c120         1.4394566595812581
    x233        c126         1.1947157089790925
    x233        c134         1.4430029158816797
    x233        c137         0.51724440578815933
    x233        c156         1.674688638813377
    x233        c161         0.29072370077973808
    x233        c164         0.16482958663078462
    x233        c166         0.3121692428581454
    x233        c173         0.13653191055950567
    x233        c180         0.53519132068896624
    x233        c185         1.5047246506263996
    x233        c189         0.52915905073660474
    x233        c190         1.2228591894538816
    x233        c193         0.10694550194432378
    x234        obj        6.5046214042904245
    x234        c8         0.43083102609479718
    x234        c11         0.53743174098886204
    x234        c44         1.5405814682855692
    x234        c48         0.34940985705185046
    x234        c66         0.28264152462474357
    x234        c72         1.707216190900906
    x234        c77         1.395299807484387
    x234        c89         0.55352667186651117
    x234        c90         0.81172566624517228
    x234        c109         0.64415798543485325
    x234        c110         0.17815244866481061
    x234        c114         0.37711832396612177
    x234        c131         1.221701137719073
    x234        c136         0.83891379077847505
    x234        c139         0.98895473519365684
    x234        c144         0.78683939928339675
    x234        c146         1.3475399340195588
    x234        c160         1.4875105133793038
    x234        c181         1.4755544253208244
    x234        c193         0.54343634947575625
    x234        c199         0.56264180827049493
    x235        obj        1.0874771301627968
    x235        c20         1.3686314459826694
    x235        c25         0.76374776450709814
    x235        c26         0.47977794835804088
    x235        c28         0.7085240388760663
    x235        c65         1.4292932618635203
    x235        c78         0.15419435861628245
    x235        c79         0.50592711470666185
    x235        c99         1.401961745174604
    x235        c102         1.5788205896172793
    x235        c107         0.48512216907166683
    x235        c126         1.4909729624919521
    x235        c156         1.642314412543773
    x235        c169         0.77636532200897757
    x235        c176         0.210124177128311
    x235        c179         1.1737340875078794
    x235        c183         1.2150017202349135
    x236        obj        9.3608533696741034
    x236        c15         1.3095349792973352
    x236        c18         1.2546557965616281
    x236        c28         1.6386456052790932
    x236        c36         0.74045939143582551
    x236        c38         0.64144254086390462
    x236        c40         0.53251636311608452
    x236        c45         1.8879749060798972
    x236        c50         0.6690945540366614
    x236        c60         0.24506967194091694
    x236        c70         0.83282741417149386
    x236        c78         0.66856373037555672
    x236        c81         0.22252102321357539
    x236        c89         1.9805422954893888
    x236        c90         0.99332657463270735
    x236        c98         1.1130820112853461
    x236        c99         1.9937311527166535
    x236        c106         0.7302693169143698
    x236        c107         0.36579433762414659
    x236        c122         1.3586635935654543
    x236        c156         1.1824211379697422
    x236        c180         0.92246976485386445
    x236        c187         0.24026546444432215
    x237        obj        5.2874088299662754
    x237        c26         1.8404596462632692
    x237        c28         1.6221371198659209
    x237        c44         0.35596643503291914
    x237        c83         1.9967931190526689
    x237        c102         0.48200582112230084
    x237        c124         0.28226775563399209
    x237        c133         1.4962460439040963
    x237        c152         0.24906227707126194
    x237        c153         0.60007710262443703
    x237        c155         1.2329833593777793
    x237        c163         0.80409812468119124
    x237        c171         1.4398601111537224
    x237        c173         0.95867577843774032
    x237        c177         1.4004523300993867
    x237        c183         1.4387299471959312
    x238        obj        8.6350924634628203
    x238        c4         1.304935765483737
    x238        c17         0.21422349705640858
    x238        c99         0.95760006981399148
    x238        c108         1.1182177142161396
    x238        c111         1.051185063607162
    x238        c120         0.6554575838616733
    x238        c122         1.724031372386251
    x238        c123         1.6731256287461524
    x238        c126         1.9913854536783455
    x238        c135         1.894098461950924
    x238        c150         1.8947225803970935
    x238        c167         1.4090956435941608
    x238        c168         1.2053455203607291
    x238        c181         0.26334146317910401
    x239        obj        9.2122376815190439
    x239        c8         0.45277383366522139
    x239        c13         0.29930220758803455
    x239        c16         0.17687894646460861
    x239        c23         1.2820247338741999
    x239        c26         1.6618437764055203
    x239        c35         0.40045930993089773
    x239        c51         0.58786615660246599
    x239        c59         1.4117302646104355
    x239        c88         1.8107178938699955
    x239        c98         0.93451217505892248
    x239        c128         1.241906900676216
    x239        c147         0.17001913025646676
    x239        c162         1.1703884205722483
    x239        c166         0.51794428160399586
    x239        c183         1.308093964772872
    x239        c184         1.1757193956531289
    x239        c186         1.6401623527979057
    x239        c196         0.49066188476959316
    x240        obj        5.2464707691553381
    x240        c10         0.51989867919478128
    x240        c64         1.7331198734825013
    x240        c76         1.627062196439891
    x240        c108         0.71139915299167367
    x240        c110         1.2390539523398376
    x240        c113         1.3784575895148157
    x240        c121         1.6009260416458377
    x240        c128         1.8601752352965732
    x240        c138         1.5071531801479274
    x240        c140         1.8199287512699831
    x240        c148         0.42781973059022604
    x240        c154         0.10391272083101541
    x240        c163         0.26690663408370824
    x240        c166         1.1738046077397086
    x240        c172         0.11613003813157734
    x240        c180         0.57109628449658145
    x241        obj        8.5962787814140871
    x241        c47         1.7277223602767835
    x241        c54         0.20781814516084979
    x241        c60         1.5991559266725961
    x241        c64         1.7500570123375891
    x241        c69         1.2954908618157746
    x241        c76         1.7623099037350778
    x241        c124         0.71436325505432019
    x241        c161         0.96624029906977771
    x241        c187         1.9060223949004216
    x241        c190         0.57012414224402208
    x242        obj        9.6094112022769131
    x242        c0         0.33698404760458944
    x242        c13         0.67837131220135438
    x242        c16         1.2343949063619608
    x242        c17         1.9431749943685699
    x242        c21         0.46797075669020383
    x242        c37         0.26133724252045187
    x242        c42         1.8114771997649552
    x242        c44         0.59025357744433471
    x242        c48         0.59266044085277958
    x242        c59         0.87014330876581525
    x242        c84         0.6136460549349253
    x242        c87         0.19960442601748193
    x242        c96         1.9628260953617023
    x242        c100         1.7468277672680799
    x242        c101         0.7115954868015707
    x242        c106         1.1704957421575362
    x242        c108         0.82249948449964705
    x242        c113         1.4643986828908866
    x242        c123         0.15755890688822016
    x242        c139         0.5138436176106943
    x242        c152         0.70061032796536171
    x242        c153         0.72528641766296975
    x242        c160         0.18013922480954458
    x242        c168         1.1791059147054528
    x242        c179         1.9706971115088978
    x242        c183         1.2671673466564164
    x243        obj        3.5817855104313856
    x243        c0         0.43044126740815125
    x243        c2         0.62407285083698683
    x243        c4         0.4820209602815031
    x243        c42         1.413135197639227
    x243        c58         0.98877815587517104
    x243        c63         1.6378475749944943
    x243        c73         1.5142407988573665
    x243        c74         0.4974312652945162
    x243        c82         0.88475609639229791
    x243        c88         0.3071830639457096
    x243        c93         1.0371737517261719
    x243        c137         1.2221513120622052
    x243        c139         0.79740413738515936
    x243        c152         0.9182933837731192
    x243        c154         0.26312042933219593
    x243        c166         1.9546145577179139
    x243        c184         0.69906413164780545
    x243        c199         0.6618053471200448
    x244        obj        2.9491365829777272
    x244        c5         0.66063079544130621
    x244        c7         1.0539580937901756
    x244        c10         0.66918619282236302
    x244        c17         0.75160315432235458
    x244        c33         0.67485061725879614
    x244        c34         1.6538784277568845
    x244        c47         1.7449075617205718
    x244        c76         0.25748643422002504
    x244        c79         0.3969230362321593
    x244        c82         0.8116676221385426
    x244        c89         1.5192780734447202
    x244        c97         0.22499197847130784
    x244        c99         0.54057832796781302
    x244        c137         0.75533222953447843
    x244        c160         1.5907651151311364
    x244        c164         1.6369986685400792
    x244        c197         1.9422353471563409
    x245        obj        4.6915347075466967
    x245        c4         1.2072402857067168
    x245        c5         1.4832713423635806
    x245        c26         1.2961741118586489
    x245        c29         1.7282216904213761
    x245        c36         0.31925343462998518
    x245        c40         0.43955399708136267
    x245        c52         1.9564471381548516
    x245        c53         0.8965126069410192
    x245        c63         0.37826803619769478
    x245        c76         1.1069435498624938
    x245        c93         1.1607257923599055
    x245        c110         0.80548100738567574
    x245        c118         1.8664680294030283
    x245        c119         1.7629091996570214
    x245        c122         1.1059078322397018
    x245        c150         0.62917075423977731
    x245        c156         1.7317863886576024
    x245        c184         0.54914933345540817
    x245        c193         0.26098019341669954
    x245        c197         0.2708681494302404
    x246        obj        9.0513058192482809
    x246        c12         1.9697586060054515
    x246        c43         1.6690785389901146
    x246        c50         1.9073095984145176
    x246        c79         1.2161872188121983
    x246        c93         1.855369637045402
    x246        c104         0.65059026497906458
    x246        c105         0.94770294814623923
    x246        c116         0.33358902392243051
    x246        c124         1.1965514379349571
    x246        c129         0.44984932971061131
    x246        c136         0.179731356166282
    x246        c143         1.5271270799600203
    x246        c194         0.24915190593167919
    x247        obj        5.7569565106599718
    x247        c46         1.5660767993956732
    x247        c51         0.74298775928312666
    x247        c63         1.7984334985039032
    x247        c68         0.77941488944175963
    x247        c78         1.991000098424353
    x247        c86         1.7515745876899114
    x247        c89         0.37274423754108255
    x247        c101         1.2609208922532047
    x247        c113         0.96961904709876023
    x247        c114         1.7464397446851636
    x247        c126         0.69480101857645671
    x247        c154         0.68609481368017344
    x247        c177         1.6188822918468038
    x247        c179         0.75585570990193784
    x247        c184         0.77803852905854831
    x247        c191         0.56996375905009511
    x248        obj        2.8520196543979317
    x248        c10         1.0452450669615057
    x248        c25         0.76627815823174195
    x248        c45         1.3516302987692808
    x248        c51         1.0185189654685989
    x248        c89         0.89025617690754699
    x248        c96         1.8654213121770249
    x248        c99         1.8078460952095079
    x248        c107         1.6758832461898345
    x248        c133         0.43044977487411318
    x248        c137         0.33845073996244474
    x248        c141         1.9548416397497328
    x248        c143         1.9437580056963442
    x248        c160         0.93265724804190298
    x248        c176         0.7834301377153462
    x248        c180         1.3919046118763079
    x248        c183         0.13423045123489083
    x249        obj        3.5163631865140741
    x249        c12         1.3874766915358228
    x249        c37         0.15229656143266759
    x249        c49         1.9571041347228102
    x249        c84         1.5609529936246467
    x249        c86         1.4162316203394107
    x249        c95         0.47411484801144566
    x249        c103         1.9840751834638439
    x249        c108         1.4937775292486539
    x249        c116         1.013667607067158
    x249        c120         1.2808168690640998
    x249        c144         0.18580444169941815
    x249        c148         0.47106732195249712
    x249        c158         1.7736494835997967
    x249        c160         1.684987386349545
    x249        c177         1.0615247180334839
    x249        c182         0.484865847257691
    x249        c185         0.65244285817535008
    x249        c191         0.46551954905590365
    x250        obj        1.7092005256428822
    x250        c8         1.5888333288152949
    x250        c20         0.93963120536133227
    x250        c26         1.5598510287739062
    x250        c29         0.2149166074314855
    x250        c35         0.72641837332829495
    x250        c69         1.9609786685711348
    x250        c70         1.3272302440582997
    x250        c76         0.36995138395532867
    x250        c80         0.67780873427060329
    x250        c82         0.35493527479444686
    x250        c89         1.6638725837073816
    x250        c96         1.4708112819923647
    x250        c101         1.7302966150977266
    x250        c115         1.8717348522080814
    x250        c116         0.21734745336181124
    x250        c118         0.20934177931379794
    x250        c120         1.7043403404265174
    x250        c177         0.35500725180126835
    x250        c179         0.76763038320929977
    x250        c185         1.9671650900862112
    x250        c187         1.256196220918649
    x250        c196         1.0062033611839276
    x251        obj        8.6118159405708106
    x251        c2         0.89735941662460894
    x251        c30         0.56056907649618559
    x251        c31         1.0890004473188086
    x251        c50         0.16331374092776202
    x251        c53         0.9830207950734815
    x251        c56         1.2161048283678733
    x251        c64         0.55542895222054567
    x251        c72         0.37903012105059453
    x251        c74         1.1352776266794702
    x251        c82         1.5091907409931919
    x251        c101         1.6917590307828934
    x251        c114         1.9416151021370576
    x251        c125         0.4693192361835129
    x251        c140         1.6845121992829426
    x251        c142         0.31700243420291352
    x251        c162         0.28938450317098474
    x251        c170         0.9396568543266326
    x251        c189         1.8612873620991017
    x251        c199         0.41383153839863385
    x252        obj        5.9415434274246195
    x252        c2         1.9371610601405098
    x252        c9         1.2295405235607544
    x252        c24         0.7848046113760947
    x252        c25         1.5716330382148331
    x252        c28         1.7757313248620499
    x252        c49         0.32318945468416116
    x252        c52         1.9275508445116307
    x252        c68         1.8626538071683572
    x252        c88         1.3005784757536447
    x252        c114         1.2008819741430485
    x252        c131         0.12100335743871221
    x252        c143         1.3204030787330674
    x252        c150         0.54528705235685171
    x252        c153         0.14761599659463054
    x252        c160         0.47550894130732813
    x252        c169         1.8622253577866048
    x252        c174         1.5231333854519788
    x252        c175         0.18949234051127356
    x252        c178         0.61090343819700477
    x252        c191         1.8956682275643348
    x252        c194         0.80409306719093909
    x252        c199         1.8827469973602933
    x253        obj        9.2287042751887451
    x253        c2         1.2707037574633473
    x253        c11         1.6731218173618603
    x253        c22         0.14068985299234216
    x253        c24         1.764435537204553
    x253        c27         1.2372173071447041
    x253        c76         1.8129655018965545
    x253        c81         1.7258054489453818
    x253        c92         1.2517747404194668
    x253        c115         1.4977415935194607
    x253        c138         1.7095154372962151
    x253        c140         0.55102895055424128
    x253        c144         0.31297843679475401
    x253        c154         0.43106975247154822
    x253        c161         0.50134001787533977
    x253        c164         0.61812499432517798
    x254        obj        5.3306237166141353
    x254        c1         1.6586341617812506
    x254        c18         0.1500071009595946
    x254        c45         0.57425340547070136
    x254        c51         1.8568665623724792
    x254        c70         1.8503032154325605
    x254        c79         0.66539384248301281
    x254        c83         1.8733847089809612
    x254        c84         1.1987174472491642
    x254        c88         1.1431680564772437
    x254        c117         0.49173031039042536
    x254        c120         0.62671893245793586
    x254        c126         1.4250582477863014
    x254        c136         1.094626822614047
    x254        c137         1.9474531232317311
    x254        c140         1.7824579728563739
    x254        c146         1.9664226397371605
    x254        c160         0.31866340677104943
    x254        c161         0.74997230936286607
    x254        c162         1.2984294542637873
    x254        c165         0.78804340063731315
    x254        c171         0.877250002697471
    x255        obj        1.5468911613419563
    x255        c19         1.0762888813030349
    x255        c48         1.6121918484383959
    x255        c80         0.27639295582653378
    x255        c105         0.95341654746538484
    x255        c114         0.42374306379061011
    x255        c115         0.78148842435060362
    x255        c123         0.99816282249610389
    x255        c130         0.36270478987939447
    x255        c140         0.56424195097124408
    x255        c178         0.4078480138657381
    x255        c183         1.1355237761874737
    x255        c195         1.1633130683959905
    x256        obj        6.3163231799054422
    x256        c21         0.54548105566598004
    x256        c30         1.7623138843899862
    x256        c42         1.3342539844229118
    x256        c62         1.2850247582788272
    x256        c67         0.86453993881006852
    x256        c70         1.9923520321962696
    x256        c75         1.6968771529306013
    x256        c79         1.1487350874847866
    x256        c80         1.2175326733587799
    x256        c87         0.88778514054914304
    x256        c98         0.40063512793855804
    x256        c119         0.20879063537013426
    x256        c130         0.59089681096567959
    x256        c154         1.0099132583289279
    x256        c167         0.90454797769302264
    x256        c177         1.8988858684332171
    x256        c179         1.6537671325863341
    x256        c182         0.63774638648148807
    x256        c188         1.3711096579616386
    x256        c190         0.64530929396491121
    x256        c193         1.9183544560032622
    x256        c199         0.11100882832548623
    x257        obj        8.5179153542002197
    x257        c0         1.4321089808203777
    x257        c2         1.4100313620654787
    x257        c14         0.82260572485259331
    x257        c34         0.2960585594968802
    x257        c43         0.45529670346603335
    x257        c48         1.2768860879359831
    x257        c54         0.94039906977052068
    x257        c85         0.4733302098819997
    x257        c98         1.743859800699628
    x257        c114         0.86540644853846094
    x257        c115         0.78259046519403153
    x257        c130         1.1000739753386179
    x257        c131         1.9800639018770394
    x257        c143         0.28899281081402384
    x257        c159         0.59116932547865697
    x257        c162         0.71263065646067225
    x257        c190         0.48444982950076065
    x257        c194         0.32496479757413599
    x257        c195         1.9721918235448261
    x258        obj        9.1948081273145643
    x258        c13         1.3664173515495113
    x258        c14         0.25953931824514065
    x258        c33         1.1706804540057154
    x258        c57         0.94595679354372686
    x258        c58         0.63554033399346754
    x258        c71         0.75965208151210628
    x258        c130         1.8152647013062462
    x258        c170         1.6175457735628291
    x258        c179         1.9743641302131687
    x258        c186         0.26550194427078244
    x258        c187         0.86329379665972383
    x259        obj        2.3759612283427329
    x259        c8         0.15728103187164197
    x259        c14         1.8690060015429499
    x259        c15         1.1622360815902659
    x259        c25         0.87373675704962983
    x259        c33         1.228051071264525
    x259        c37         0.46133676970486792
    x259        c44         0.5272895228002572
    x259        c45         1.9948947728911997
    x259        c56         1.7710480890878202
    x259        c58         1.9695577406570417
    x259        c78         1.87757199730615
    x259        c79         0.67213426955610966
    x259        c87         1.9945467320211645
    x259        c94         0.52439783204959223
    x259        c101         0.6659955977137112
    x259        c117         0.38616075165628716
    x259        c131         0.77790862793167159
    x259        c138         1.5948724163144405
    x259        c142         0.48836317951308916
    x259        c172         1.448227159306301
    x259        c179         0.77837603572745151
    x259        c184         1.7556246780404035
    x259        c196         0.1103011011078449
    x259        c197         1.4617172737514914
    x260        obj        3.2001018855252057
    x260        c16         0.21915650352423599
    x260        c22         0.11088233935348676
    x260        c27         1.4993595884129292
    x260        c33         1.6339078651434358
    x260        c59         0.96455212179835104
    x260        c69         0.92464403493383251
    x260        c78         1.7877508054662017
    x260        c105         1.8624274099392677
    x260        c116         1.0923459024582181
    x260        c130         0.13656050937910805
    x260        c150         1.3205994235340779
    x260        c167         1.1347959021297096
    x260        c168         1.9671783376709568
    x261        obj        2.9115486662362615
    x261        c1         0.18807711678680472
    x261        c5         1.8511304862394811
    x261        c16         0.79560150534405405
    x261        c34         0.26158139948308673
    x261        c35         1.3198234916419469
    x261        c40         0.93385374571698843
    x261        c54         0.31679296170722332
    x261        c63         1.1683694221755445
    x261        c67         0.36097928004874535
    x261        c69         0.54439864984831066
    x261        c86         1.0919723393064451
    x261        c112         1.6779765952109473
    x261        c159         1.6986175879887426
    x261        c167         0.85617972824121169
    x261        c179         0.36567192164112816
    x261        c182         0.43895579254840766
    x262        obj        4.1646092453605439
    x262        c10         1.698361266960656
    x262        c29         0.87807810087164173
    x262        c49         1.2636421598104313
    x262        c52         0.14165961653527886
    x262        c64         0.96574152965628468
    x262        c101         0.66535140937778159
    x262        c122         0.2613458032809135
    x262        c132         0.18507549691813213
    x262        c140         0.91670477209916967
    x262        c141         1.4563228920611264
    x262        c157         1.4025426767254381
    x262        c166         1.4361095424375288
    x262        c196         0.9175708733981518
    x263        obj        4.6249743225486295
    x263        c9         0.93629933778050545
    x263        c11         0.37007539340923135
    x263        c21         1.8863042346536678
    x263        c24         0.27849505057427026
    x263        c49         0.42736860263879262
    x263        c78         1.3002748357565046
    x263        c85         0.82453796900579146
    x263        c88         1.0669626702098913
    x263        c94         1.4471747751647936
    x263        c101         1.464153800230205
    x263        c105         0.89020922606447261
    x263        c120         1.5091003855258136
    x263        c143         0.95916440640219613
    x263        c166         1.4397006272764634
    x263        c170         1.8412642642173274
    x263        c172         0.23500499202030362
    x263        c174         1.5343530118800837
    x263        c185         1.1562597433591042
    x263        c195         1.579376672671992
    x264        obj        5.6847145140744324
    x264        c9         1.8012613457211406
    x264        c29         0.20556733916480402
    x264        c36         1.7601784068895201
    x264        c48         0.22402282783526001
    x264        c58         0.21163007371809711
    x264        c75         0.13394413410521866
    x264        c76         1.0897657644776158
    x264        c87         1.0090236907445684
    x264        c99         1.4208424639213111
    x264        c123         1.6033379713185312
    x264        c132         1.4046278311553495
    x264        c147         0.61363229334048608
    x264        c152         0.88043610087684232
    x264        c155         1.8328486959434955
    x264        c162         0.60322942636970622
    x264        c182         1.6682011695218448
    x264        c186         0.94966346299448468
    x265        obj        7.0402306786006932
    x265        c3         1.3368786745094143
    x265        c5         1.0288819373317468
    x265        c8         0.63240229059312292
    x265        c10         1.4777076607871285
    x265        c25         1.0501108941107307
    x265        c27         0.33316709440994452
    x265        c28         1.4259988046021621
    x265        c32         1.2247997238766886
    x265        c35         0.39397092420385238
    x265        c50         0.71972384435758985
    x265        c71         0.81047199625481481
    x265        c76         0.23620113227061854
    x265        c94         0.64678542396306771
    x265        c102         1.5024162230756937
    x265        c107         0.1542560692861927
    x265        c114         1.8676272591291854
    x265        c125         0.42378663320963339
    x265        c132         0.79697516944690794
    x265        c164         0.20327665015914759
    x265        c170         1.1553169336452889
    x265        c175         0.65727149503797655
    x266        obj        2.5850479105389583
    x266        c2         1.5058251141253396
    x266        c7         1.4826585296306043
    x266        c18         1.792166833363072
    x266        c22         1.3417705240927376
    x266        c52         1.484815222632595
    x266        c81         0.73085183388557406
    x266        c91         0.91173884482630319
    x266        c93         0.96848318231459618
    x266        c100         0.40963208901121928
    x266        c101         1.4474655096139959
    x266        c113         1.2348570308289311
    x266        c137         1.546411519792122
    x266        c143         0.61774165993870156
    x266        c158         0.46233174742992245
    x266        c159         0.96552158120216003
    x266        c178         0.4585862195078596
    x266        c181         1.105225248276301
    x266        c182         0.52541459367740861
    x266        c188         1.7505938487939408
    x267        obj        4.4502052122686715
    x267        c23         0.44607987222641288
    x267        c27         0.72130572598878717
    x267        c28         1.6903535827440921
    x267        c30         0.40690886053632214
    x267        c31         1.3451526449413647
    x267        c37         1.7370607020065223
    x267        c39         1.2300129093584187
    x267        c48         1.1852708701012271
    x267        c49         1.8678457811143157
    x267        c53         0.5229518575930312
    x267        c64         1.9234948063577175
    x267        c71         0.16309689832721722
    x267        c80         1.4603052009034942
    x267        c87         0.49876942153375803
    x267        c133         0.85380042408759604
    x267        c135         1.4967208138108767
    x267        c152         0.26663644759602789
    x267        c161         1.6191315761618588
    x267        c166         0.96355204969780084
    x267        c167         1.373863292309673
    x267        c178         0.63603636567403432
    x267        c181         1.7521771358174008
    x267        c189         0.18429172556055728
    x267        c191         1.8385497268605875
    x268        obj        6.0693803874440713
    x268        c12         1.4973767551323536
    x268        c14         1.5313614614474869
    x268        c23         0.79646776850072476
    x268        c67         1.9630514736749183
    x268        c74         1.6308907196699791
    x268        c79         0.100324130323516
    x268        c101         1.0835410064022371
    x268        c119         1.0951744709347708
    x268        c144         0.8428388130844362
    x268        c158         0.42255828377341254
    x268        c172         1.231373587822336
    x268        c174         1.4661149914192382
    x268        c194         1.432789225704048
    x269        obj        5.9196327126859973
    x269        c16         0.55079599941267221
    x269        c19         1.0365750289995272
    x269        c20         0.55209966918606646
    x269        c29         0.80652440368025824
    x269        c44         0.2916195513461054
    x269        c48         1.6950276155663138
    x269        c50         0.41683471375421666
    x269        c85         0.6380730483545819
    x269        c92         0.8194113097938186
    x269        c106         1.2149244933118166
    x269        c107         1.3667233549626825
    x269        c118         0.24280430279655946
    x269        c134         0.87971401006932881
    x269        c162         1.9572692349508076
    x269        c164         0.94558142491776132
    x269        c171         1.1355527400075214
    x269        c176         0.66629069089914938
    x269        c194         1.8503161264793919
    x270        obj        1.7391618099972184
    x270        c4         1.1977419033167964
    x270        c5         1.8262024291672878
    x270        c6         1.2342268095284432
    x270        c14         1.7279083751696862
    x270        c24         1.8068728111389569
    x270        c29         0.74902193757465962
    x270        c34         1.2415422107978498
    x270        c44         0.41154367926660429
    x270        c49         0.14579996433156614
    x270        c65         1.4919828082423456
    x270        c71         0.59266817593541943
    x270        c81         0.95384275810365438
    x270        c82         0.50006813933782224
    x270        c95         1.6181311197221195
    x270        c142         1.319569004382257
    x270        c164         0.75979503784259272
    x270        c194         0.41832348327623725
    x271        obj        4.3980878283331943
    x271        c27         1.0727722665912756
    x271        c36         1.1979115143097323
    x271        c40         1.6239837094394169
    x271        c54         0.87458241709810303
    x271        c88         0.31736803053621321
    x271        c106         1.4955797871271506
    x271        c107         1.3571763865355031
    x271        c109         0.49300118103566781
    x271        c115         0.81897226768782549
    x271        c122         1.8434440507286776
    x271        c136         1.4746365714506011
    x271        c141         1.5679678334291307
    x271        c148         0.30477871266113721
    x271        c153         1.4358876577377284
    x271        c165         0.72279684567941094
    x271        c177         0.51059979061232552
    x272        obj        4.4004344989252306
    x272        c6         0.93910724679074453
    x272        c24         1.4284929204506216
    x272        c32         1.2506262125488394
    x272        c34         1.7810108301698067
    x272        c37         1.0786425885193942
    x272        c43         1.8846208748368536
    x272        c56         1.4327300027997834
    x272        c61         1.125165616815512
    x272        c63         0.1244296666704504
    x272        c76         0.30564081149752276
    x272        c80         1.2965222965396717
    x272        c99         0.93905267980663487
    x272        c111         0.90833429619054362
    x272        c123         0.68901016551365257
    x272        c129         0.82882369819748691
    x272        c147         0.63112210045099104
    x272        c148         1.3505984414315131
    x272        c154         0.93752142035105923
    x272        c168         1.0919314349282843
    x272        c181         0.59670413693766289
    x272        c183         1.2343036707135357
    x272        c185         0.79348553251493692
    x273        obj        5.6481004423603887
    x273        c1         1.5806797504314161
    x273        c20         1.0678641469132715
    x273        c21         1.8684090416428569
    x273        c42         1.7470319823643063
    x273        c43         1.1965373758048468
    x273        c66         0.18372183970536204
    x273        c77         1.2877558055082012
    x273        c83         0.6201847249075586
    x273        c89         0.44771355013227199
    x273        c94         0.89418616524472083
    x273        c101         1.7302581322308999
    x273        c104         1.7280168235433309
    x273        c113         1.7287994132766105
    x273        c142         1.4228360956458512
    x273        c148         1.5272108066672532
    x273        c184         0.79272004888193026
    x274        obj        8.8701269867172776
    x274        c9         1.72373976590051
    x274        c15         0.1278084186971927
    x274        c26         1.3557994980759003
    x274        c27         1.848998768349555
    x274        c29         0.41914506984039512
    x274        c36         0.57118686985522316
    x274        c38         1.1162797669411648
    x274        c66         0.55210186936376449
    x274        c114         1.1927412143605776
    x274        c118         1.4272473233995018
    x274        c123         0.15028227691364546
    x274        c134         0.41756290252687478
    x274        c154         1.6028712346656926
    x274        c162         0.98599709427081661
    x275        obj        6.4160214636039967
    x275        c3         0.59548111077600518
    x275        c6         1.8079561606166039
    x275        c9         0.95673899834725529
    x275        c25         1.9986248341328676
    x275        c39         0.15736988536145452
    x275        c43         1.6786744405744469
    x275        c51         0.45169542826392839
    x275        c52         1.2874254085984058
    x275        c67         1.6716305886421332
    x275        c68         1.1069443564531181
    x275        c73         1.1959840039177421
    x275        c81         0.64964850803321483
    x275        c88         0.6455151084613131
    x275        c92         1.071154867469146
    x275        c105         1.1923938249961581
    x275        c109         1.3540971521752552
    x275        c141         1.4541701365755313
    x275        c160         1.8833258132036736
    x275        c180         0.24300754520594031
    x275        c187         1.8609338551551575
    x275        c199         0.63588094869955658
    x276        obj        5.3648804872961717
    x276        c0         0.14065121522312768
    x276        c11         0.48817161639741846
    x276        c14         1.5339651311224991
    x276        c16         0.84922690909625331
    x276        c36         1.5336482506876272
    x276        c98         1.0318890293907785
    x276        c106         1.0301307914993882
    x276        c110         1.5032860069461109
    x276        c111         0.77844378542769599
    x276        c112         0.48616091914667858
    x276        c138         0.63584236583871201
    x276        c157         0.76256749048837569
    x276        c161         0.83498219357482328
    x276        c180         1.1698583646787419
    x276        c186         0.29165662672251119
    x276        c188         0.22867738542204039
    x277        obj        5.2209253199040546
    x277        c3         1.282341054484408
    x277        c16         1.9114005279183601
    x277        c22         0.66210708433877585
    x277        c31         0.15886840665080196
    x277        c71         1.4757623573234044
    x277        c92         0.38416582307448077
    x277        c97         1.8761205509675558
    x277        c106         1.9991036657363777
    x277        c139         0.46267762152924408
    x277        c141         0.25053461005512206
    x277        c145         1.3522247629883013
    x277        c169         1.9356761717379609
    x277        c182         1.2653494181098066
    x277        c183         0.58860071521103108
    x277        c184         1.4095905323252376
    x277        c188         0.31942329358081878
    x277        c189         0.65837535822613635
    x278        obj        7.2601663536367802
    x278        c11         1.1361950277422928
    x278        c21         0.62114273366666828
    x278        c24         0.63157062815410869
    x278        c35         0.81505011910527037
    x278        c36         0.30928413983170078
    x278        c44         0.61988794414222614
    x278        c47         1.6169540703178176
    x278        c55         1.2269769625573437
    x278        c56         1.5641978503979157
    x278        c57         0.25645763099581875
    x278        c72         1.9560700547411549
    x278        c75         0.17417536437446751
    x278        c95         0.75578121753703176
    x278        c104         0.55475005310002867
    x278        c107         0.64967342840236098
    x278        c116         1.154144340666738
    x278        c124         1.0685831861489092
    x278        c133         1.4667625275790235
    x278        c141         0.18857112505436463
    x278        c144         0.99021072332679116
    x278        c153         1.1343899885246289
    x278        c163         1.283182967969744
    x278        c168         0.78279423232885614
    x278        c175         1.1084186137233776
    x278        c180         1.8000913543553001
    x278        c189         0.8536285648662485
    x278        c199         1.7868699831525756
    x279        obj        5.8495108649482201
    x279        c6         0.45866674954593611
    x279        c8         1.1286550607091095
    x279        c9         0.66500949937702813
    x279        c18         0.61224848861138748
    x279        c25         0.18480276251940125
    x279        c36         0.66909591531481616
    x279        c45         1.1314133140567286
    x279        c48         0.20571675770871425
    x279        c56         0.90356283739836263
    x279        c66         1.5603470692335939
    x279        c69         0.24398959058276132
    x279        c71         1.4952894303108073
    x279        c74         1.1368826507671246
    x279        c85         1.7678035131710583
    x279        c90         1.5273816465790178
    x279        c93         0.35807685257821575
    x279        c115         1.2692037531731915
    x279        c125         0.91810424102392252
    x279        c136         1.2867981052805868
    x279        c172         0.72031642869496948
    x279        c190         0.17000786116407318
    x280        obj        6.9241864619537505
    x280        c3         0.42474557539564484
    x280        c18         0.52240938503115808
    x280        c25         0.70749575311261648
    x280        c34         0.58914418195759577
    x280        c44         1.3469530221213404
    x280        c55         1.139341590739807
    x280        c62         1.7858082331086571
    x280        c70         0.50515743362822607
    x280        c84         0.36293116621717192
    x280        c92         1.0416010931607529
    x280        c121         1.5385386659818729
    x280        c126         0.6934795929750418
    x280        c130         0.44059318533505243
    x280        c174         1.8389938616569801
    x280        c175         1.8909729951276557
    x281        obj        6.3529984004545579
    x281        c4         1.367350672387091
    x281        c15         0.75463029951278038
    x281        c30         1.7733068514596586
    x281        c35         1.939946925951987
    x281        c61         1.6269876776999082
    x281        c78         1.2105220168996882
    x281        c84         1.3062533392491713
    x281        c93         0.98707878852636577
    x281        c111         1.9726803178853629
    x281        c112         1.0238060463089278
    x281        c113         0.90231054540016453
    x281        c127         0.61712581333050087
    x281        c131         1.559941277963977
    x281        c132         0.49723220259319756
    x281        c137         1.3204214922496549
    x281        c144         1.1311599156435781
    x281        c148         0.6743060490961541
    x281        c149         0.47391612675009609
    x281        c156         1.1706383440735195
    x281        c160         0.11175931356506574
    x281        c163         0.57230778916782543
    x281        c196         1.5498813090496948
    x281        c198         0.24835428127343057
    x282        obj        8.6162409316560229
    x282        c12         0.46412766199921085
    x282        c15         0.91595588188947108
    x282        c28         0.68772244419789985
    x282        c30         0.44303359081356086
    x282        c48         0.197615852068043
    x282        c57         1.3118137133279331
    x282        c59         1.902396005180123
    x282        c63         0.19431496182723607
    x282        c75         1.8652209698403948
    x282        c83         1.6339549689544368
    x282        c98         0.87400973218524791
    x282        c102         0.16607712974440464
    x282        c103         1.9544310438407977
    x282        c106         1.2027510612348424
    x282        c120         0.51120005136037305
    x282        c122         1.5571398971378978
    x282        c126         1.7996742452225771
    x282        c158         1.4906098955960303
    x282        c170         1.7073881439345506
    x282        c198         0.83017454120732426
    x282        c199         1.9972904454654343
    x283        obj        7.2240491174395318
    x283        c12         0.83883871734022508
    x283        c25         1.8996088230531727
    x283        c39         1.2136383184159296
    x283        c43         1.8242097910839408
    x283        c70         0.68455943653601892
    x283        c84         1.9695694412374296
    x283        c98         1.049932394047268
    x283        c117         0.8611467879154876
    x283        c119         1.0287611392213238
    x283        c131         1.6644509708338147
    x283        c135         0.33728191047687905
    x283        c147         0.91085526640028081
    x283        c157         0.49733216035767724
    x283        c173         1.3171568259095636
    x283        c176         0.29068274607569033
    x283        c189         0.59656103887145051
    x284        obj        6.6214465859734162
    x284        c7         0.32262247836921887
    x284        c25         1.7736803465429833
    x284        c30         0.8424244804040486
    x284        c34         0.12436737371584171
    x284        c42         1.2314213150965194
    x284        c43         0.91731136206076824
    x284        c52         0.79826915273230548
    x284        c62         1.510956873480501
    x284        c63         0.9445830911749441
    x284        c73         1.2231038859414227
    x284        c87         0.61686163842736141
    x284        c107         1.7756761041015867
    x284        c112         1.595769412055319
    x284        c122         0.70706642331311453
    x284        c156         0.74590667418390699
    x284        c166         0.69288677496205353
    x284        c179         1.9501640081353839
    x284        c181         0.73358372543106221
    x284        c182         1.0367578084010443
    x284        c188         1.8897330980812563
    x284        c189         0.80445206517139423
    x284        c199         0.86176609934747128
    x285        obj        3.844990182213762
    x285        c2         0.98401473892132829
    x285        c19         1.5043979709425697
    x285        c23         0.16180761428733956
    x285        c28         0.16648709454962723
    x285        c40         0.39656826309468307
    x285        c47         1.126747163742523
    x285        c59         1.7272983343371429
    x285        c62         1.6925140003439634
    x285        c86         0.96781262541809876
    x285        c102         1.8142704123157114
    x285        c118         0.56252971249195938
    x285        c134         1.1714958902900094
    x285        c138         1.5263002152850005
    x285        c140         1.2615182569267878
    x285        c141         1.7742895535048326
    x285        c144         1.9354512195108839
    x285        c148         0.5665277748274018
    x285        c152         0.12377631293144602
    x285        c155         0.66971538514161943
    x285        c167         1.0281480714966185
    x285        c177         1.4233403934072424
    x285        c185         1.6979905912140532
    x285        c186         0.74180710375149284
    x285        c192         0.31245366533138241
    x286        obj        8.7051294948306612
    x286        c8         1.8060971202814586
    x286        c9         0.49501049892867188
    x286        c11         1.7895182531245002
    x286        c14         1.7919484362150619
    x286        c17         1.3022223654503331
    x286        c35         0.83322395815430139
    x286        c36         1.2551598911929471
    x286        c41         0.46714763256389202
    x286        c53         1.907698879635493
    x286        c57         1.7291640445601646
    x286        c78         1.9708275196846929
    x286        c102         1.3983175543306643
    x286        c108         0.13186441345124619
    x286        c113         0.23381736396202424
    x286        c132         1.7808164343298474
    x286        c159         1.7631702583682958
    x286        c177         1.4736792296355783
    x286        c190         0.29168462244349436
    x287        obj        7.4644205890532174
    x287        c0         1.3269780721111852
    x287        c1         1.9008978563689716
    x287        c10         1.3120206060111546
    x287        c13         0.76446549959111765
    x287        c16         0.5517507394771195
    x287        c27         1.9822151832970625
    x287        c48         0.12749509014083285
    x287        c50         1.9879559586284774
    x287        c71         0.35363437206957771
    x287        c93         0.63613158902492573
    x287        c95         0.62020769329918446
    x287        c96         1.7904519271459083
    x287        c97         1.9502679822952509
    x287        c108         1.4029641025490971
    x287        c109         0.96164520363440742
    x287        c113         1.4974099438851336
    x287        c121         1.0598196865104257
    x287        c138         0.20927268049634815
    x287        c151         0.58947367334884138
    x287        c166         1.3207239009934437
    x287        c179         1.172244706328333
    x287        c187         0.30871572851718176
    x287        c189         1.5546490920357274
    x288        obj        6.0244746980003931
    x288        c1         0.66770978587989982
    x288        c3         1.3385921392255535
    x288        c13         1.0931362603525649
    x288        c19         0.56686319090667348
    x288        c27         1.6155905642153205
    x288        c30         1.6106895659229084
    x288        c41         0.1273069589652957
    x288        c45         0.42953739635247457
    x288        c56         1.3411557138177852
    x288        c67         0.36921521959821935
    x288        c102         0.11908525683638405
    x288        c110         1.0568950015293876
    x288        c133         0.90860251127295666
    x288        c134         1.7504423468419474
    x288        c135         0.94217260598168517
    x288        c136         1.1076709053464535
    x288        c171         1.7891112325546912
    x288        c182         0.14099512660275915
    x288        c188         1.0641194605572759
    x288        c195         1.892296798298311
    x289        obj        3.3940240238858288
    x289        c2         0.48113220425337166
    x289        c12         0.49085086588336513
    x289        c16         1.2713051328597524
    x289        c18         0.90920454046487309
    x289        c32         1.7062650930780814
    x289        c54         0.79622809460732502
    x289        c71         1.2366966684838652
    x289        c76         0.70823882604094623
    x289        c89         1.8498903862527867
    x289        c95         0.5720309439210558
    x289        c97         0.3880077500834791
    x289        c109         0.6934938585435706
    x289        c131         1.3281660811300999
    x289        c135         0.80076547449518209
    x289        c136         1.1253846445747211
    x289        c154         1.2893809628624056
    x289        c166         0.24229821650741215
    x289        c193         0.93778245051662623
    x290        obj        2.5092084666483592
    x290        c4         1.3881309566225977
    x290        c7         0.56580334222368589
    x290        c15         0.82304478808671122
    x290        c42         1.4172049880134407
    x290        c53         1.6933883833766223
    x290        c57         0.15875959216020025
    x290        c65         1.3084158843022049
    x290        c68         0.60891083965322479
    x290        c69         0.47670401396580686
    x290        c77         0.3254250536120985
    x290        c86         1.0171847269261765
    x290        c95         0.71693062580811162
    x290        c99         0.49154455609097081
    x290        c115         0.61897476126218309
    x290        c116         1.4734410480915334
    x290        c146         1.9813268259446801
    x290        c155         1.5047343494825962
    x290        c175         1.3058915527550843
    x290        c183         1.9802885898948528
    x290        c188         1.9070220905632309
    x290        c193         1.1608202448091045
    x290        c199         0.41405874148875588
    x291        obj        5.6816622538688515
    x291        c14         1.1042384147378759
    x291        c16         1.7412966282571547
    x291        c17         0.13085669821111195
    x291        c33         0.48318291280939718
    x291        c36         0.48694752070491254
    x291        c39         1.2030457341211931
    x291        c46         1.7820291335745584
    x291        c53         1.5528964796745415
    x291        c62         0.46915318772853931
    x291        c67         0.45645808824428491
    x291        c71         1.1739633460004786
    x291        c76         1.9331811208647567
    x291        c90         1.2684018650215045
    x291        c95         0.61331918993963319
    x291        c97         1.5698917819564366
    x291        c111         1.5119584295175243
    x291        c129         0.37577602151527112
    x291        c148         0.75093871435379089
    x291        c177         1.7928090796597798
    x292        obj        6.6546962639264668
    x292        c13         0.43959486611676457
    x292        c16         1.6775076427299276
    x292        c30         0.2450384352408633
    x292        c44         0.82301842703390993
    x292        c46         1.386879212016715
    x292        c47         0.7205529846179729
    x292        c52         0.42685272091460025
    x292        c54         1.6356925339406467
    x292        c64         1.5583634411633851
    x292        c66         0.80882591205363574
    x292        c68         1.6740963297136304
    x292        c78         0.25681160098174416
    x292        c86         0.21560901527783433
    x292        c110         1.2689747784401577
    x292        c119         0.33815464330269396
    x292        c131         1.4876309636064102
    x292        c132         1.0227741124747916
    x292        c146         1.1377678679836247
    x292        c157         1.1530226392957565
    x292        c181         0.18999315485405388
    x293        obj        7.4995771830533418
    x293        c11         0.53191417833397414
    x293        c14         1.624913919269755
    x293        c31         0.84309683486460385
    x293        c39         1.9639547365831407
    x293        c44         1.9793082390846666
    x293        c46         0.98773644734560251
    x293        c47         1.5548544447710591
    x293        c51         0.75863004056834249
    x293        c63         1.3645740979126626
    x293        c96         0.16038322355405404
    x293        c103         0.10300743844858962
    x293        c106         0.85925196106606694
    x293        c114         1.3233816462032606
    x293        c123         1.0089594330294371
    x293        c126         0.54997606562891987
    x293        c155         1.6213233115225769
    x293        c163         0.11913372743054404
    x293        c165         1.4743736457406711
    x293        c183         1.7851626021244911
    x293        c188         1.4343699593124546
    x293        c191         0.59389691845514336
    x294        obj        5.751205615770159
    x294        c4         1.7037699676082529
    x294        c11         1.3479983325192415
    x294        c30         1.5111082857616183
    x294        c33         0.45808833451413788
    x294        c45         1.9871119708650442
    x294        c49         0.71977571587954325
    x294        c65         1.3429359303333943
    x294        c72         0.37651174658304432
    x294        c88         1.1541775477963132
    x294        c90         1.6867788823048993
    x294        c91         0.26176749615807637
    x294        c113         0.94148220489067147
    x294        c114         0.82668560844184513
    x294        c116         0.53090452525044352
    x294        c133         0.36963050934253372
    x294        c136         1.1679681762082232
    x294        c143         1.1020075470914878
    x294        c154         0.25620410696351087
    x294        c156         0.6867226811869489
    x294        c165         1.4368758092674041
    x294        c168         1.9399795335270322
    x294        c174         1.3354863170899274
    x294        c180         1.7914702960224245
    x294        c185         1.7943323805990159
    x294        c190         0.5518501662831401
    x295        obj        3.498670650587945
    x295        c6         0.16032233427066001
    x295        c8         1.3028277879218986
    x295        c52         1.2125898970125841
    x295        c53         0.64431030646746745
    x295        c74         0.17104794885249619
    x295        c75         1.7038631855194666
    x295        c81         0.56574209468621406
    x295        c83         1.1963947222610878
    x295        c88         0.14391208554675561
    x295        c106         0.93253252356100302
    x295        c113         1.9289094951286454
    x295        c126         0.68694943568212008
    x295        c130         1.9276442444602135
    x295        c137         0.73391874616661801
    x295        c140         1.7126745538222836
    x295        c157         1.0452756114251924
    x295        c174         0.64044645988113036
    x295        c176         1.9498914253099044
    x295        c195         1.0834625158572624
    x295        c197         0.2184173632402725
    x295        c198         1.5113553297215192
    x296        obj        1.0491834655969339
    x296        c1         1.9588381708069174
    x296        c11         0.22517609516948056
    x296        c18         0.15819030380885363
    x296        c22         1.5767185397085532
    x296        c24         0.79592334147978483
    x296        c31         0.87774440238721496
    x296        c38         1.3537039348271411
    x296        c66         1.6502999220465742
    x296        c76         0.32825845215519123
    x296        c86         1.7664336218439831
    x296        c99         0.87237618843549458
    x296        c110         1.4379659616509093
    x296        c112         1.3662688222806711
    x296        c122         0.50316877126673643
    x296        c132         1.5262148865483263
    x296        c134         1.3595237918330623
    x296        c143         0.36688244866434461
    x296        c149         0.3839973267246316
    x296        c158         0.30535165202434644
    x296        c167         0.42418175690562221
    x296        c175         0.5898462778032304
    x296        c184         0.38287359989147651
    x296        c187         0.38942115195292448
    x297        obj        7.3486276721400818
    x297        c2         1.2009813767598758
    x297        c40         1.9406013477604696
    x297        c60         1.7188585324736092
    x297        c74         1.2936444722195142
    x297        c80         1.561388290131132
    x297        c84         1.5286530067362674
    x297        c98         0.19754119801793263
    x297        c109         1.0747364175798617
    x297        c117         0.25690438891152062
    x297        c122         1.9000071194218062
    x297        c126         1.4994433116972627
    x297        c138         1.8092401076222748
    x297        c146         0.97624359334006161
    x297        c155         1.5240263429647529
    x297        c159         0.81310739833234957
    x297        c168         0.16947096463802372
    x298        obj        7.120943285078206
    x298        c3         0.46260027832031736
    x298        c4         0.39985815089345589
    x298        c11         0.65775629024510396
    x298        c32         1.8156137047270897
    x298        c35         1.919855483114669
    x298        c41         1.7903021252933522
    x298        c52         0.70030098063181812
    x298        c53         0.17981244936884688
    x298        c71         1.9307906955517429
    x298        c103         0.72643518345089353
    x298        c108         0.5168487760837327
    x298        c114         1.4912324105506662
    x298        c116         1.0369795106550319
    x298        c124         0.66833646377041478
    x298        c125         1.2948738027375222
    x298        c150         0.71890864892237094
    x298        c197         1.4517713756993582
    x299        obj        7.4249776984500144
    x299        c26         1.3379678604357335
    x299        c32         0.37113066668434391
    x299        c87         1.7214849938922452
    x299        c130         0.39662725762379558
    x299        c146         1.3688934421231704
    x299        c164         1.8943096956730998
    x299        c172         1.6940726357254958
    x299        c189         1.2508250446020046
    x299        c192         1.5436184924772998
    x300        obj        4.0503513319099778
    x300        c4         0.24887537189828882
    x300        c25         1.0150275938932882
    x300        c40         1.3023321055928725
    x300        c41         1.63806651176217
    x300        c54         1.0534763900588735
    x300        c60         1.2027607626469401
    x300        c82         1.4556044978471299
    x300        c85         0.98990363683683535
    x300        c103         1.8505256981974028
    x300        c123         0.89730809164817626
    x300        c127         0.11489488634914541
    x300        c129         1.9260383357851207
    x300        c141         1.5817918786887226
    x300        c157         1.0069317219114322
    x300        c159         0.43393686434096967
    x300        c164         0.14240058834024202
    x300        c165         1.7396063838061504
    x300        c177         0.63716588575700139
    x300        c183         0.63008992807585329
    x300        c199         1.5995940514134339
    x301        obj        2.7675278058289718
    x301        c7         1.4048151269986124
    x301        c8         0.19366260312185976
    x301        c9         1.2014267513858512
    x301        c21         1.4321913667688528
    x301        c32         1.0339422188874849
    x301        c55         0.91878753613447872
    x301        c69         1.1790149368487501
    x301        c84         0.23772754155146017
    x301        c96         0.96157891955818831
    x301        c106         0.60046206516414669
    x301        c112         0.18492853017876884
    x301        c126         1.7660904780451228
    x301        c130         1.5154726982739657
    x301        c145         0.65254765250918922
    x301        c151         1.2910149432316129
    x301        c161         1.0435598936346857
    x301        c177         1.8361536666244762
    x301        c182         0.63616959876706136
    x301        c191         0.71471678820035922
    x302        obj        1.2499359443407383
    x302        c6         1.4268185352894021
    x302        c29         1.411203998435592
    x302        c37         0.49682604026678989
    x302        c38         1.3581107815685491
    x302        c45         1.8340407933972136
    x302        c52         1.2531882019543419
    x302        c53         1.169691254522953
    x302        c59         0.32835408172515534
    x302        c71         1.5627107673926512
    x302        c73         0.84205907698968152
    x302        c77         1.8635435651450094
    x302        c80         0.15106040117571093
    x302        c85         1.6724423560361521
    x302        c106         0.37287988676181916
    x302        c122         0.3136545440503955
    x302        c126         0.18652177794175512
    x302        c127         0.1383043400585319
    x302        c134         0.32768784765432424
    x302        c139         1.7240631075145905
    x302        c151         1.7854768127359371
    x302        c164         0.33078359777827515
    x302        c172         0.78359988033611838
    x302        c182         1.8017964877346024
    x302        c189         1.7948184948627683
    x303        obj        7.9219905308992784
    x303        c0         0.90506572300731525
    x303        c6         0.87432919702079359
    x303        c13         0.53977940200079633
    x303        c25         0.1350710207862908
    x303        c30         1.7688225741456514
    x303        c34         1.4733246530693966
    x303        c37         1.9223057875881493
    x303        c67         0.70810761241093312
    x303        c77         0.75128241546272023
    x303        c85         0.98464242688933046
    x303        c101         1.4415678524673301
    x303        c102         1.3694265051470218
    x303        c109         0.64743435532261229
    x303        c112         0.19385230289932628
    x303        c117         1.6785833527496363
    x303        c128         0.84698110005739169
    x303        c133         0.26260166250827305
    x303        c147         1.8166971014463997
    x303        c175         1.962651725681374
    x303        c178         0.77453043946316102
    x303        c183         0.30797025185388544
    x303        c192         0.1300518081529477
    x303        c195         1.2829875575309901
    x303        c198         1.4333147698742901
    x304        obj        1.7930083460691291
    x304        c7         1.1949923806034932
    x304        c13         1.135369852378024
    x304        c18         0.83813038882352997
    x304        c22         1.9736882117442605
    x304        c53         1.3902069648734372
    x304        c56         0.18176756293831769
    x304        c59         0.43342550325982543
    x304        c61         0.48721718722098339
    x304        c62         1.0084968551711653
    x304        c64         1.0040176063223976
    x304        c75         1.2935949705533931
    x304        c76         0.928860232228365
    x304        c85         1.748489837572903
    x304        c104         1.4186496713826398
    x304        c107         1.2148000760195583
    x304        c127         0.60109436599171773
    x304        c133         0.33940224185767343
    x304        c141         1.755874978553851
    x304        c142         1.708830874864729
    x304        c143         1.2510045791617836
    x304        c157         1.3109920437305174
    x304        c199         0.11258464987567775
    x305        obj        9.9332142594307058
    x305        c23         0.16479632992891524
    x305        c27         1.236049702631659
    x305        c76         0.42046310008865029
    x305        c85         0.16837455552187461
    x305        c86         0.30972476394685144
    x305        c99         0.24858536742299586
    x305        c104         1.6376720345494029
    x305        c105         0.64423275540365421
    x305        c120         0.72520839386180458
    x305        c148         1.7908682757161674
    x305        c151         1.0385514576853598
    x305        c152         0.45448417850208489
    x305        c188         1.0051698902901278
    x305        c192         0.30250020954300694
    x305        c199         1.4993725724137128
    x306        obj        2.9050953566432973
    x306        c14         1.9825153189287497
    x306        c21         0.62799134832492898
    x306        c32         1.7108907941205092
    x306        c38         1.7836498930554048
    x306        c90         1.409144244508735
    x306        c100         1.1444039507907935
    x306        c111         1.401322321023339
    x306        c118         1.0094459006126419
    x306        c126         1.1563665875205833
    x306        c132         0.87266413987982949
    x306        c138         0.94843417330936752
    x306        c142         1.7579488784854898
    x306        c152         1.1739081462301948
    x306        c155         1.0510318424697134
    x306        c156         1.981083368525034
    x306        c158         0.80511364692427789
    x306        c159         1.5193683334407777
    x306        c163         1.5407211666745415
    x306        c172         0.65130737320894594
    x306        c173         0.41921555988083048
    x306        c197         0.74289998419368586
    x306        c198         0.35423220873211581
    x307        obj        8.4783370738840951
    x307        c6         1.6489207981919667
    x307        c8         1.5018364012399983
    x307        c19         1.1520066308703709
    x307        c31         0.32135518471604274
    x307        c35         1.6125755687179004
    x307        c41         0.33565179833168302
    x307        c51         0.12395838727782789
    x307        c82         0.80015893935862636
    x307        c91         1.2600750281085242
    x307        c94         0.47260432381277662
    x307        c122         1.6443156108655155
    x307        c124         0.98138842505540158
    x307        c169         0.52917281116892922
    x307        c174         0.68148648331283057
    x307        c186         0.41826511996797699
    x307        c187         0.55237799810085697
    x308        obj        4.3241553425976251
    x308        c1         0.48660574281232294
    x308        c7         1.5618541282833038
    x308        c17         0.99549214907786043
    x308        c20         1.8739445015178993
    x308        c28         1.7838847261833861
    x308        c34         1.9152385788367092
    x308        c47         1.74432923594698
    x308        c58         0.26482956633163252
    x308        c64         1.7944566365367383
    x308        c70         1.8328020903361812
    x308        c76         1.3561844823151303
    x308        c92         0.90819791903624192
    x308        c100         1.447677922521283
    x308        c109         0.25743975026757682
    x308        c119         1.9067860738818561
    x308        c136         0.36756413495653828
    x308        c146         0.79767431863803351
    x308        c158         0.57834712761128082
    x308        c160         0.47147665881174627
    x308        c165         1.8170546989429339
    x308        c171         0.28833583889061354
    x308        c175         0.76971628192062547
    x308        c180         0.38304384632187416
    x308        c181         0.63105111963336136
    x308        c183         0.62806484874467416
    x309        obj        5.5218824317656621
    x309        c3         1.4080423688241948
    x309        c11         0.55161692484836666
    x309        c13         1.9967742066887042
    x309        c31         0.25221827188146367
    x309        c64         1.7898843938740954
    x309        c69         0.42525958068562508
    x309        c73         1.0292112030810503
    x309        c79         0.30941996435572777
    x309        c82         0.17063044725446591
    x309        c84         0.51705049414102255
    x309        c90         1.4013288536463144
    x309        c93         0.5504435641619988
    x309        c102         0.16372917436152834
    x309        c105         1.0149851087124238
    x309        c106         1.9348629130777046
    x309        c111         0.23966293454900522
    x309        c132         1.6652074738139673
    x309        c151         0.39926276981893183
    x309        c152         1.0754834561636197
    x309        c154         1.5449297690701198
    x309        c165         1.8816058559652933
    x309        c169         1.1778810830552793
    x309        c186         1.2097937530372955
    x309        c187         0.84117955409603284
    x309        c190         0.5848342409135715
    x309        c195         0.13255816423702738
    x310        obj        4.8913547224098695
    x310        c12         1.9790698765327792
    x310        c15         0.61646894038517508
    x310        c20         0.87033555976390997
    x310        c25         0.88574367790827202
    x310        c28         0.18123940892665563
    x310        c29         0.55150983920214292
    x310        c50         1.7968333672684322
    x310        c59         1.1096589265914891
    x310        c61         1.6637871374504085
    x310        c72         0.4858660104400071
    x310        c83         0.4175320594076174
    x310        c91         0.3295230922038262
    x310        c97         0.67679780905972853
    x310        c100         1.1988599106729103
    x310        c124         1.9104925185994732
    x310        c126         0.86374586789331409
    x310        c143         0.660121882716181
    x310        c146         0.86754998983353715
    x310        c147         1.272066945834802
    x310        c164         1.0512180554186725
    x310        c174         0.14016941147043177
    x310        c175         1.3233023877871051
    x310        c177         0.8539738934829928
    x311        obj        6.9162351715521062
    x311        c23         1.003785825354742
    x311        c36         1.7709581778573604
    x311        c48         0.87994539187626331
    x311        c53         1.1230256959743861
    x311        c54         0.28157890680106568
    x311        c68         1.3465224523395571
    x311        c75         0.19005921308742779
    x311        c76         1.0599844322014
    x311        c82         0.16481123341792892
    x311        c86         1.0719838411850104
    x311        c87         1.3276551866206943
    x311        c94         0.17156662377211035
    x311        c103         0.47129405578727357
    x311        c126         1.0776725484864149
    x311        c128         0.86259550351700509
    x311        c133         1.4788489195694021
    x311        c136         0.54984543598882185
    x311        c141         1.4973124527556767
    x311        c146         0.25460249742229302
    x311        c173         0.45530792009512144
    x312        obj        3.4677880844363034
    x312        c21         0.48247732708900271
    x312        c33         0.61902461106167683
    x312        c58         1.6799309427910551
    x312        c61         1.8427498672673288
    x312        c79         0.2536147086734245
    x312        c91         1.1489702256658534
    x312        c96         0.60836925505777073
    x312        c106         1.3280266174934312
    x312        c131         1.3831234165416548
    x312        c140         0.13166223464253127
    x312        c150         1.1586974296151564
    x312        c153         0.17273885576839515
    x312        c154         0.27936952388428338
    x312        c176         1.7036486105481776
    x312        c180         1.9597449997621823
    x312        c187         1.8297756696202829
    x312        c190         1.7143702479687246
    x313        obj        3.4521123846682191
    x313        c10         1.6321016939579287
    x313        c17         1.4924186043962626
    x313        c28         0.67670793437554366
    x313        c34         0.74438600743967953
    x313        c42         0.4082588899809485
    x313        c49         1.1905882036692945
    x313        c71         0.74217187208858904
    x313        c92         1.394791264841966
    x313        c94         1.7087444503595677
    x313        c103         0.12254608785745948
    x313        c113         0.39076998337634483
    x313        c149         0.69837765602036939
    x313        c157         1.294721291193488
    x313        c185         1.8413955889443085
    x314        obj        9.4553193591285254
    x314        c1         0.74300592596858928
    x314        c7         1.6381061200746321
    x314        c14         1.252311126283207
    x314        c18         1.6314076176286285
    x314        c35         0.73557446422266159
    x314        c42         0.98692552272087775
    x314        c47         1.1756199556335265
    x314        c52         0.75344936466282109
    x314        c54         0.74080287693510771
    x314        c66         1.2481840319939201
    x314        c77         1.9098254498465959
    x314        c91         1.7177346758759744
    x314        c98         0.19601039029191128
    x314        c100         1.7317906682377706
    x314        c102         0.89907502060956435
    x314        c107         1.7422852733289425
    x314        c108         1.8894918200482342
    x314        c110         1.72587177107421
    x314        c121         0.60022396210284346
    x314        c134         0.25253030595209358
    x314        c146         0.75175024011073299
    x314        c150         1.3429256337003319
    x314        c151         0.45531849070889741
    x314        c158         0.99422060207725171
    x314        c186         0.15406001543575767
    x314        c195         1.6609491599036135
    x314        c196         1.5502238590769031
    x315        obj        7.0990030026708357
    x315        c11         0.54605087676352293
    x315        c27         1.5361268173624731
    x315        c36         0.36611602201838023
    x315        c37         0.53884383741998576
    x315        c39         0.17953256844265655
    x315        c42         1.835839633639371
    x315        c44         0.11865334246758587
    x315        c54         0.37618168543503105
    x315        c57         0.15201219311584716
    x315        c83         0.92719758173160194
    x315        c95         0.19167587878193243
    x315        c98         1.5502382911480947
    x315        c101         1.3895748846370162
    x315        c106         0.8569980117072713
    x315        c126         1.0670045673941391
    x315        c137         0.17950714924307382
    x315        c153         1.539716378962239
    x315        c159         0.36282124666598115
    x315        c173         1.5250182401290884
    x315        c174         0.22800293001638441
    x315        c187         0.87012990196060069
    x316        obj        3.6914762463438704
    x316        c32         1.5308406277278921
    x316        c44         1.9116675607156204
    x316        c50         0.35029863945489637
    x316        c51         1.3347027478240068
    x316        c57         0.16680127911481907
    x316        c65         0.38375968053664711
    x316        c72         1.008582408981257
    x316        c82         1.545409884428276
    x316        c101         0.41243080313492664
    x316        c120         1.301584408893429
    x316        c122         0.99055953364429583
    x316        c150         1.4968412721192224
    x316        c159         1.7961551197441472
    x316        c184         0.12472695298350701
    x316        c188         0.76806463139642256
    x316        c195         0.80837172835770199
    x317        obj        9.4903931913945652
    x317        c15         1.839100314972028
    x317        c17         1.0380578256712594
    x317        c30         1.3431733958621783
    x317        c39         0.67699672008809653
    x317        c49         1.6973031882474938
    x317        c77         1.4212686612258303
    x317        c92         0.85009318240566856
    x317        c104         1.3883418371657419
    x317        c110         1.3585262934903732
    x317        c117         0.17687761633280363
    x317        c122         0.31635611168710243
    x317        c143         0.80488877440427498
    x317        c156         1.2857988713814661
    x317        c158         0.8713498731633057
    x317        c167         1.701500226376981
    x317        c175         0.31121577514435983
    x317        c177         0.42318789381847277
    x317        c197         1.4053602317934106
    x318        obj        4.3504814176940201
    x318        c18         0.72074119545090776
    x318        c23         1.8415067718290936
    x318        c38         1.4594142238763481
    x318        c44         1.9722233131730613
    x318        c56         1.7828506902911734
    x318        c73         0.77943986184081182
    x318        c74         1.9929926260424637
    x318        c78         1.5535985105365797
    x318        c90         1.2762079024626409
    x318        c106         1.4246153882377801
    x318        c107         1.5382642197414604
    x318        c111         1.5293904852713642
    x318        c127         0.79723453615145523
    x318        c128         1.3127377212574514
    x318        c134         0.40016101328482923
    x318        c146         1.2756770201592662
    x318        c148         1.4716982282534037
    x318        c162         0.97962856594333314
    x318        c177         1.6547824045172823
    x318        c195         1.0477331734335602
    x318        c197         0.406060709977493
    x319        obj        3.0970985330300209
    x319        c12         0.12211893841308409
    x319        c14         0.78979920586925456
    x319        c56         0.63225208417735501
    x319        c69         1.2592006119726331
    x319        c70         1.5200201012265488
    x319        c77         1.540411677973631
    x319        c84         1.1905515071505273
    x319        c86         1.1946778089289911
    x319        c93         0.3763990828936431
    x319        c94         0.56442550223135712
    x319        c95         0.68368507178241311
    x319        c104         1.538459664700371
    x319        c120         1.8425979692688019
    x319        c129         1.5515115053818138
    x319        c136         1.3142234820675545
    x319        c138         1.8818582106312456
    x319        c141         1.5290050357659912
    x319        c145         0.69855457754150774
    x319        c153         1.1258024540243148
    x319        c166         0.68708021408150166
    x319        c172         0.57981800594280264
    x319        c174         0.68197818785266251
    x319        c175         0.97381479503450386
    x319        c181         1.7763912812743599
    x319        c186         1.9216488094613422
    x319        c199         0.37597297626820159
    x320        obj        9.4320321827174709
    x320        c22         1.2626268570131962
    x320        c37         1.3971737915220506
    x320        c38         1.7454894878258826
    x320        c60         0.26006636117247733
    x320        c82         0.92728972519447594
    x320        c93         1.9713094087163008
    x320        c98         0.89400641195197117
    x320        c107         0.46786714014811737
    x320        c114         0.27489932141510776
    x320        c130         1.8819078989041518
    x320        c138         1.747331182703139
    x320        c143         0.52325325741196671
    x320        c148         0.49332928236698714
    x320        c154         1.4403891977191619
    x320        c176         0.64162158889548704
    x320        c178         0.41436452635754017
    x320        c183         0.73327849149236246
    x320        c199         0.39962552868816459
    x321        obj        6.6335231481526842
    x321        c13         0.94780582263122604
    x321        c22         1.06877764354305
    x321        c25         1.8437508629166892
    x321        c26         1.7521044675277957
    x321        c48         1.1508518495993323
    x321        c56         1.3011955269546436
    x321        c60         1.9281128549533104
    x321        c67         0.73228303242200088
    x321        c86         0.57341932259224193
    x321        c97         0.92341271894084653
    x321        c102         0.73181827381835263
    x321        c116         0.92476800188947716
    x321        c144         0.65250621161373745
    x321        c157         1.5714711364989637
    x321        c162         0.1338522427197372
    x321        c191         0.86881089887709761
    x322        obj        8.7044311919790402
    x322        c1         0.22254466483337537
    x322        c11         1.9592351751386707
    x322        c26         0.46198288167005397
    x322        c39         1.6500681356404272
    x322        c50         0.5548250372272282
    x322        c84         1.4157051219197179
    x322        c96         1.5139358110962062
    x322        c122         1.5332764455205603
    x322        c127         0.42949838395360607
    x322        c135         0.55400848961804317
    x322        c140         1.9878159807039981
    x322        c151         1.7230892549474186
    x322        c160         1.0944401774746702
    x322        c164         1.5751221328852398
    x322        c172         0.68856224361522522
    x322        c182         1.7292519283483525
    x322        c183         0.67767395941263187
    x322        c193         1.1640404510500733
    x323        obj        6.9368378208983454
    x323        c8         1.3797280767360516
    x323        c12         1.3058075413371613
    x323        c21         1.6446134773747891
    x323        c28         1.5925218957075931
    x323        c36         1.9814464307998665
    x323        c47         0.6674418167642735
    x323        c56         1.5709655293792399
    x323        c88         0.14746660607650122
    x323        c92         0.56346445314655458
    x323        c99         1.192316378022646
    x323        c146         1.3289855553841019
    x323        c148         1.5358311261326953
    x323        c152         1.3088731157002185
    x323        c154         0.59825809451856371
    x323        c161         1.0146779147506522
    x323        c166         0.44939967827912075
    x323        c182         0.62825990488092287
    x323        c188         1.1186022073748683
    x323        c189         1.0695280007021626
    x324        obj        6.6410879072130529
    x324        c7         0.39969238457914336
    x324        c10         1.2255950957561323
    x324        c17         0.46764234808981853
    x324        c27         0.30296270852627782
    x324        c30         1.7948200855984946
    x324        c35         1.1930270513695582
    x324        c54         0.89794116140769231
    x324        c59         1.5399881056440463
    x324        c61         0.98741142247830749
    x324        c66         1.0213474447112127
    x324        c86         0.91690789021209873
    x324        c97         0.2736626188019064
    x324        c102         1.0041712988638092
    x324        c114         0.8068327412858155
    x324        c120         0.47398592508612425
    x324        c123         0.78757705603580996
    x324        c132         0.37930626815959367
    x324        c140         1.6008307153919448
    x324        c149         1.4539842429800589
    x324        c163         0.13834499593801383
    x324        c165         0.98342795534881278
    x324        c170         0.26491191106389789
    x324        c172         1.7486083808100035
    x324        c195         1.44519553801742
    x324        c198         1.8819088134231754
    x325        obj        4.3808795960179943
    x325        c1         1.479304936348955
    x325        c13         1.6547002369089074
    x325        c20         1.197766690318566
    x325        c21         1.5532665049505137
    x325        c41         1.0197873836001505
    x325        c55         1.1572450200155679
    x325        c87         0.82027548810324347
    x325        c111         0.18365684673586802
    x325        c116         0.94258100730503769
    x325        c123         1.2517489273106801
    x325        c129         0.9748660526283901
    x325        c136         1.9205248336848373
    x325        c141         0.73339942674908831
    x325        c144         1.8204456616727613
    x325        c156         0.73566768636697077
    x325        c161         1.6148798301478873
    x325        c166         1.9635772517973011
    x325        c170         1.6413040074349954
    x325        c171         1.989649347690011
    x325        c191         1.2456702554092232
    x326        obj        9.7197232976344434
    x326        c5         1.2044521107523236
    x326        c15         1.9965537126643091
    x326        c17         0.62699391934495496
    x326        c41         1.0891289663379227
    x326        c44         1.356213064237165
    x326        c55         1.5036675910761117
    x326        c60         1.8465053252766594
    x326        c68         1.9000854517125254
    x326        c75         0.70217487970345871
    x326        c128         0.2456389006903924
    x326        c131         0.10209715852236789
    x326        c147         0.66862944316867712
    x326        c149         1.723294377252693
    x326        c155         0.22333064694737637
    x326        c172         1.1384777364698058
    x326        c187         1.5323493385156204
    x327        obj        6.9634746608472415
    x327        c9         0.27591082631162733
    x327        c19         1.4424779190157584
    x327        c23         1.5148503008773957
    x327        c25         1.4550376255407667
    x327        c60         0.55722036746591352
    x327        c93         1.5862557852394212
    x327        c99         1.0941784427739245
    x327        c103         0.56421452895120983
    x327        c118         0.68185288553430601
    x327        c124         1.8422552291938115
    x327        c161         1.4650203265115653
    x327        c164         0.41608193322851483
    x327        c166         0.89066673144627595
    x327        c168         0.7652769132439855
    x327        c169         0.69459484430830631
    x327        c172         1.637610863946245
    x327        c174         0.91903272871356634
    x327        c179         0.27684161118586581
    x328        obj        3.4264739486729607
    x328        c5         0.5058219060333935
    x328        c18         0.69272966594769814
    x328        c27         0.2423272914243518
    x328        c43         0.64339921306521008
    x328        c45         0.10012409177289107
    x328        c51         0.93790777589719332
    x328        c61         1.3770063136516615
    x328        c68         1.871986551376436
    x328        c72         0.89543521770537038
    x328        c80         0.23284361868853468
    x328        c82         1.774406697304763
    x328        c88         0.86139820697905456
    x328        c111         0.50882294896500813
    x328        c120         0.54068192791711744
    x328        c149         0.39433441918934153
    x328        c158         0.31764678881066011
    x328        c169         1.9103660160815197
    x329        obj        2.0601344017609016
    x329        c4         0.37243708126207198
    x329        c5         1.7172963078817463
    x329        c24         1.1524294358397906
    x329        c30         1.1837831499285045
    x329        c33         0.88922974120769582
    x329        c49         0.6138633671627548
    x329        c70         1.157186018816462
    x329        c83         0.94216743046719309
    x329        c86         1.4607616209510266
    x329        c88         0.13942593395523339
    x329        c93         1.5672423281163281
    x329        c101         1.1616963169548173
    x329        c110         1.3947909613521741
    x329        c169         1.4270062182781165
    x329        c176         0.9661510189438397
    x329        c184         0.80571548287248662
    x329        c194         1.0734471299859489
    x330        obj        8.4672286673109252
    x330        c0         0.47829116399017013
    x330        c17         0.6481876546333929
    x330        c32         0.81966748319990046
    x330        c37         1.8657089654346635
    x330        c45         1.3359561576560564
    x330        c70         1.0141729785767248
    x330        c71         1.31374704606557
    x330        c76         0.39165188724006395
    x330        c85         1.0145304746391437
    x330        c93         0.88659825644443169
    x330        c99         0.5514826523992451
    x330        c106         1.3651028838112578
    x330        c112         1.3908734468697181
    x330        c123         0.71439946297527412
    x330        c127         1.2885516228934915
    x330        c133         1.2172068766170661
    x330        c136         1.6757830220166687
    x330        c137         1.9021350024902137
    x330        c138         0.90110790130879748
    x330        c145         0.84537679962633094
    x330        c154         0.39790592041343975
    x330        c162         1.3544549195281932
    x330        c173         1.689121695398679
    x330        c174         1.6833252564755385
    x330        c175         0.48135184730580627
    x330        c181         0.87925727324349956
    x330        c190         0.4705733743979823
    x331        obj        2.0009116998121503
    x331        c5         1.0391948328896556
    x331        c28         1.4031796249180244
    x331        c33         0.9112781492513844
    x331        c43         0.73912276335294946
    x331        c95         0.29038811679804066
    x331        c119         1.14995363433649
    x331        c126         1.0984544864684378
    x331        c131         1.5642345026661935
    x331        c139         1.2825227889581603
    x331        c168         1.3103389705016661
    x331        c180         0.20093489631037217
    x331        c194         1.2361700006917711
    x332        obj        4.7593360717633324
    x332        c10         0.79039995285748021
    x332        c23         0.54336966382702234
    x332        c26         0.80732611970195367
    x332        c35         1.3195541907717017
    x332        c48         1.5289983038332362
    x332        c57         1.6290718819375318
    x332        c62         0.56342990746808963
    x332        c63         0.8955576873086547
    x332        c89         0.46505357259782742
    x332        c95         0.51820230918334509
    x332        c101         0.45927473664699658
    x332        c106         1.7241848435933507
    x332        c127         1.4200992872706484
    x332        c134         1.2473404438739666
    x332        c145         0.77407486751372323
    x332        c151         1.9855936619131953
    x332        c154         1.1027150331364519
    x332        c169         1.6587901321556158
    x332        c170         0.18699935314044303
    x332        c181         0.15904863767348815
    x332        c191         1.1187737722916815
    x332        c197         1.577087516708445
    x333        obj        7.1734794928833097
    x333        c4         0.76140679756375562
    x333        c5         1.6213217882731707
    x333        c30         1.5258670933329836
    x333        c43         0.14992238240330716
    x333        c53         1.7581279036140138
    x333        c60         1.8352012210203825
    x333        c70         0.18991678252881367
    x333        c74         1.1878543803636878
    x333        c89         0.58500810571039119
    x333        c95         0.82558841263409621
    x333        c98         0.45356593021078151
    x333        c100         1.1701513802962671
    x333        c109         1.1634133690363155
    x333        c137         0.17263003729506637
    x333        c147         1.4582386417548301
    x333        c149         0.15598977198824895
    x333        c159         0.91431958564618465
    x333        c171         0.53271292219466204
    x333        c179         1.3740666842945581
    x333        c186         1.6744140626324824
    x333        c195         1.5952266334436758
    x333        c198         1.9630589027691938
    x334        obj        3.2046166844038417
    x334        c0         1.0109415227563943
    x334        c5         1.0932697824084192
    x334        c7         1.7455392689746729
    x334        c51         1.0614224600384963
    x334        c69         1.9922864902901298
    x334        c74         0.27266757914659062
    x334        c82         1.4284271447577217
    x334        c106         1.9956397833036505
    x334        c108         1.0775247132904728
    x334        c112         0.55202907594695794
    x334        c125         1.9832561901450012
    x334        c136         1.5036702409566101
    x334        c156         1.8110727710134478
    x334        c199         1.2928207964369833
    x335        obj        7.377731049136619
    x335        c16         0.98761125872899702
    x335        c26         1.1114633720155809
    x335        c27         1.3257949724019029
    x335        c38         1.5103176335861719
    x335        c49         1.1066165547081033
    x335        c71         0.58624801966665163
    x335        c87         0.87728296743678846
    x335        c113         1.2963463487561104
    x335        c114         1.969461114304772
    x335        c115         1.9927234127662583
    x335        c129         1.7958333141722005
    x335        c172         0.61807257641648683
    x335        c188         1.0957980687776165
    x336        obj        3.9631587189517212
    x336        c14         0.89047958057403542
    x336        c17         0.42071466372771571
    x336        c19         1.8130149079666416
    x336        c37         1.0362122181917404
    x336        c55         0.98565666626497517
    x336        c56         0.77026905407046864
    x336        c59         0.38323286404780643
    x336        c61         0.41321221390501872
    x336        c62         0.27919620934372957
    x336        c76         1.4067441979193873
    x336        c77         0.51044055913152087
    x336        c79         0.21241689201561878
    x336        c80         1.6610893321684923
    x336        c81         1.400146821940069
    x336        c92         0.46304700247144193
    x336        c107         1.1493256688876683
    x336        c115         1.5668367463658261
    x336        c146         0.48520382747587776
    x336        c160         1.1755785352622008
    x337        obj        5.0130972924470125
    x337        c16         1.731843579182498
    x337        c21         0.94136976505632453
    x337        c22         0.82429446032256792
    x337        c46         0.70090665630641213
    x337        c55         0.94505975717956026
    x337        c62         0.23493089534129469
    x337        c64         1.9452424632200291
    x337        c78         1.3045235945106954
    x337        c107         1.2627546826873104
    x337        c113         0.53439063928538066
    x337        c116         0.75167999844245204
    x337        c117         1.0416045363540163
    x337        c130         0.34543486932502804
    x337        c136         1.1990773232490146
    x337        c140         0.24510498236956543
    x337        c144         1.4705217828380674
    x337        c152         0.24432782875639497
    x338        obj        3.8231309369134285
    x338        c4         1.6192738011047922
    x338        c9         1.8528290569786889
    x338        c17         1.6614431682271764
    x338        c25         1.4212892964374575
    x338        c26         0.6276291988699223
    x338        c29         0.79211608801011935
    x338        c43         1.4689999897438888
    x338        c56         0.79535128562290314
    x338        c61         0.54631542195056004
    x338        c70         1.1311268648250454
    x338        c82         1.039630414229352
    x338        c92         0.99389118804395138
    x338        c108         0.1117141267724735
    x338        c118         0.80377851343452145
    x338        c129         0.3023219053637648
    x338        c131         0.98164503448356899
    x338        c134         1.4039795571522942
    x338        c141         1.4562090930655105
    x338        c145         1.5868462711501365
    x338        c161         0.55362995566428996
    x338        c164         1.1079475514561523
    x338        c169         0.60324204835135764
    x338        c179         1.0294239560066267
    x338        c180         0.49816426244604095
    x338        c198         1.0032337909449585
    x339        obj        4.6809923772634328
    x339        c4         0.78086940471934052
    x339        c20         1.3152834949951135
    x339        c41         1.0937005125972459
    x339        c55         0.77690771595723773
    x339        c63         0.49772517945700412
    x339        c78         1.4491408135063457
    x339        c110         0.5257649829957437
    x339        c111         0.64158748330436888
    x339        c115         1.1955680228609868
    x339        c118         1.0841947249967374
    x339        c119         1.8568004953051684
    x339        c120         0.52608113616421082
    x339        c121         0.7292902099938966
    x339        c122         1.7993545169052656
    x339        c124         0.74938449186209055
    x339        c190         1.8440882258686582
    x339        c197         1.6799662474442842
    x340        obj        9.4562364608818044
    x340        c1         0.4608779477492817
    x340        c3         0.24575245626050651
    x340        c9         0.96578806755582514
    x340        c29         0.4293330642733717
    x340        c39         1.665350651437866
    x340        c63         1.8716339149782433
    x340        c78         1.512950932935736
    x340        c86         1.6256319262986978
    x340        c88         1.5354073118518967
    x340        c96         1.6911542344485286
    x340        c100         0.8173343219624446
    x340        c120         0.44311061995713485
    x340        c130         0.61778283143464185
    x340        c134         1.2788474068303803
    x340        c142         0.93589064216120255
    x340        c168         0.13310083637638287
    x340        c176         0.84625257363821149
    x340        c180         1.1787943763692514
    x340        c191         1.6474991100436145
    x340        c194         0.46896107231212514
    x341        obj        1.2001289055677904
    x341        c18         0.68662197034541295
    x341        c27         0.50501292503436335
    x341        c49         0.82055429740527952
    x341        c54         0.50398098144841452
    x341        c67         1.7755342220474648
    x341        c74         1.4074484036634665
    x341        c76         0.92646220258035317
    x341        c77         1.5331103822078167
    x341        c78         1.6006113021560269
    x341        c79         1.7241996488542055
    x341        c81         1.9316875728579115
    x341        c95         1.8494312507500708
    x341        c98         1.8093002733167232
    x341        c115         0.47160357533329567
    x341        c125         1.3889502400310469
    x341        c127         1.5342139111488251
    x341        c137         1.1315632706407219
    x341        c142         1.6508626620063731
    x341        c149         1.2644517833933004
    x341        c164         0.81964030837254809
    x341        c169         1.2063619595375619
    x341        c178         1.0331517925928819
    x341        c184         1.3075698165304073
    x341        c193         0.82483612532006034
    x342        obj        8.6061687189900731
    x342        c19         1.2742959663444011
    x342        c43         0.55693597373396397
    x342        c47         0.41392451938711894
    x342        c48         0.67489956197483092
    x342        c51         1.7563405794607536
    x342        c71         0.85198630890658256
    x342        c76         0.36918127672881784
    x342        c91         1.5253498934832019
    x342        c93         1.6791307216735756
    x342        c99         1.0164851822492766
    x342        c120         1.6386024574888765
    x342        c128         0.99065859446455851
    x342        c133         0.22393967474811596
    x342        c144         0.52707667861801522
    x342        c155         0.75251985059419002
    x342        c157         1.0471713673676719
    x342        c160         0.7522666886449102
    x342        c179         0.98686140157235258
    x342        c186         0.35744289315148581
    x342        c192         1.1656906988567048
    x343        obj        7.7651452421231655
    x343        c6         0.55338925049864118
    x343        c15         1.065064769562988
    x343        c31         1.1587179753278725
    x343        c32         0.12332279186723874
    x343        c34         1.6606674330086253
    x343        c55         1.5764517768418349
    x343        c101         0.10101633016340278
    x343        c128         1.5250574269134602
    x343        c133         0.77193567718524592
    x343        c156         1.5751971938070555
    x343        c180         1.0684661615761089
    x343        c182         0.4423358272253507
    x343        c196         0.83221630612918662
    x343        c198         0.80200407771943905
    x344        obj        7.7948488963277613
    x344        c9         0.74967487251573928
    x344        c16         1.8129422366065973
    x344        c21         1.6651290593445369
    x344        c27         0.68606591706776066
    x344        c55         0.127809333532205
    x344        c88         1.023058185121976
    x344        c90         1.9615149472992794
    x344        c102         0.98463376984502615
    x344        c104         1.9740658727415017
    x344        c110         1.7923866226288807
    x344        c123         0.32103668047066958
    x344        c124         1.6520730562258765
    x344        c140         0.82837781506583186
    x344        c148         1.8193315744269709
    x344        c161         0.12356877553641325
    x344        c175         0.53555157150887145
    x345        obj        5.9268451144143182
    x345        c31         0.62250631834777126
    x345        c32         1.7211559692388938
    x345        c60         0.13163535209306521
    x345        c63         1.6651782205728409
    x345        c64         0.51611824056901179
    x345        c68         0.47292375373770046
    x345        c70         0.38036709274263925
    x345        c86         0.17839233389463738
    x345        c98         1.1407202737816231
    x345        c125         1.3632558705047477
    x345        c137         0.65836440277387831
    x345        c176         0.88848221882294798
    x345        c178         0.46405890567075181
    x345        c183         1.3725482605207735
    x345        c186         0.98931556489004269
    x345        c192         1.8260051019700445
    x345        c194         0.52368404576753502
    x345        c196         0.10041545407745389
    x346        obj        2.0894904962529659
    x346        c18         0.99281867446881844
    x346        c21         1.1508980470544667
    x346        c43         0.25971799848358557
    x346        c53         0.80014570490409553
    x346        c55         0.53098540186394072
    x346        c59         0.27348707758311097
    x346        c77         1.4894171374441372
    x346        c82         0.61771611201197829
    x346        c96         0.77517928106999145
    x346        c98         0.10736300082814591
    x346        c101         0.22869246286990058
    x346        c103         0.90034856504617322
    x346        c106         0.7758872035621831
    x346        c108         0.80863648595071902
    x346        c112         0.51392188179916043
    x346        c114         1.407798104082433
    x346        c119         1.8698437811143827
    x346        c122         1.7621603010985663
    x346        c140         1.9353876508774588
    x346        c145         1.3026991427343972
    x346        c147         0.61076480864401761
    x346        c148         1.0708006927542555
    x346        c171         0.44453520621016984
    x347        obj        4.2273101711756516
    x347        c3         0.25159515696910034
    x347        c13         0.43841559523739282
    x347        c20         0.63393217577469996
    x347        c24         1.5249135760123089
    x347        c33         0.9940163879569669
    x347        c35         1.4075361187872808
    x347        c38         0.32001299776258274
    x347        c44         0.812877781768787
    x347        c57         0.16058687794322199
    x347        c68         1.4291037307458674
    x347        c83         0.97593140784237575
    x347        c91         0.56284056244465797
    x347        c94         0.58871425291075352
    x347        c104         0.97746206294561977
    x347        c106         1.0156229499223639
    x347        c113         1.8631336398167944
    x347        c118         0.77272019940214554
    x347        c122         1.0946644488927448
    x347        c123         0.66739388685309009
    x347        c129         0.23751019057570646
    x347        c130         1.0512644157784565
    x347        c133         0.5539850600763756
    x347        c138         1.5623826334108788
    x347        c147         0.61808391346534286
    x347        c148         1.1872664163902507
    x347        c151         1.6653794369316828
    x347        c180         1.5978682520765797
    x347        c181         0.53524403791080832
    x347        c189         1.4597499387891073
    x347        c190         1.4075263213780331
    x347        c194         1.478324408793537
    x348        obj        2.4605217266981154
    x348        c20         1.1121617888324968
    x348        c27         1.7096557639006125
    x348        c31         1.5276263466973452
    x348        c40         0.73953029037774332
    x348        c46         1.4069942907710986
    x348        c49         0.21903431152066327
    x348        c52         1.1765390931230264
    x348        c60         0.39388718503911491
    x348        c72         1.0326667359517376
    x348        c94         1.0370102001919779
    x348        c104         1.8181754908437415
    x348        c108         0.89035124636205254
    x348        c110         0.61525274711548572
    x348        c121         0.54404524906789098
    x348        c122         1.6837129357888136
    x348        c131         0.33724132687748942
    x348        c132         1.6372274046523976
    x348        c138         1.8223031825864924
    x348        c150         0.32880113320215065
    x348        c151         0.52813117493848594
    x348        c160         1.4558694628645186
    x348        c164         1.7411893698665342
    x348        c171         1.8523958784788805
    x348        c176         0.46574361605134107
    x348        c193         1.4686134794093875
    x349        obj        8.1957226057790287
    x349        c0         0.9786499664993128
    x349        c28         0.92458536375781453
    x349        c46         1.2182996671384734
    x349        c74         1.69102407241289
    x349        c86         0.44894167241912608
    x349        c90         1.6661199035835224
    x349        c94         1.8759169722902114
    x349        c109         1.0178546091628649
    x349        c118         1.8044547674489217
    x349        c121         1.5165493967932062
    x349        c127         1.1550847402412077
    x349        c130         0.14291037312059685
    x349        c133         0.70615710277798371
    x349        c149         0.80058546857838897
    x349        c183         0.61183305194658033
    x349        c192         1.7851513378937147
    x349        c196         0.53032810590212398
    x349        c197         1.9500913613399833
    x350        obj        9.0436953949714951
    x350        c2         0.37908240983457653
    x350        c28         1.9722788383688143
    x350        c35         1.1692012141202157
    x350        c52         0.35059429821772348
    x350        c58         1.9888585876719611
    x350        c60         0.63152131061222128
    x350        c69         0.61477846718841367
    x350        c78         0.27316571151563745
    x350        c82         0.54764150825674385
    x350        c106         1.8564518970393968
    x350        c110         1.6200852266201702
    x350        c116         0.84209493702230775
    x350        c145         1.2719767904526291
    x350        c196         1.7267027335532521
    x351        obj        7.51207194288469
    x351        c20         1.6854904768547716
    x351        c24         0.44618833492060106
    x351        c36         0.94125602922863039
    x351        c39         1.4892838077003292
    x351        c54         0.34093458781275415
    x351        c59         1.9009202177161866
    x351        c71         0.6834769176747173
    x351        c89         0.22620359400633247
    x351        c92         0.67279536415873509
    x351        c100         0.23257332553501509
    x351        c105         0.91542772956657781
    x351        c118         1.6652854629803286
    x351        c120         1.6899395913046578
    x351        c127         1.4362921258490577
    x351        c136         1.5140131800423184
    x351        c137         0.54250086862260993
    x351        c138         1.6127980847669061
    x351        c147         0.76835613647117729
    x351        c149         1.1904465944561784
    x351        c156         1.2534529932088903
    x351        c165         1.5952154016030737
    x351        c168         1.9947690610179898
    x351        c170         0.25897482726179721
    x351        c171         0.57635598784998709
    x351        c177         0.30204561474829994
    x352        obj        7.7795953391343389
    x352        c1         1.6969592357360128
    x352        c7         0.11484548108354201
    x352        c18         0.62385742544059697
    x352        c31         1.8043372894462941
    x352        c53         1.6417310542044221
    x352        c58         0.70988499748029943
    x352        c65         1.6526116126147317
    x352        c84         1.9287225779037582
    x352        c100         0.18478851606808178
    x352        c103         0.48233577221980473
    x352        c112         1.5144977156224666
    x352        c114         1.0389901567081237
    x352        c116         1.186907986537503
    x352        c119         0.36242182627714259
    x352        c131         1.4579586105824649
    x352        c140         0.52053569316435644
    x352        c149         0.59925498322585991
    x352        c150         1.7206346322392763
    x352        c151         1.6307893294384403
    x352        c155         0.772388088528279
    x352        c162         1.0709121646938313
    x352        c169         0.21971626768287983
    x352        c176         1.9894488416771756
    x352        c178         1.909127611093602
    x352        c184         1.9129358630280546
    x353        obj        3.6882554297165808
    x353        c3         1.1595909476020616
    x353        c14         0.49195519680688926
    x353        c15         0.17527018945083622
    x353        c29         1.501658457813285
    x353        c37         0.23599446239386931
    x353        c39         1.8006548082372584
    x353        c41         1.0425368747047674
    x353        c46         0.10814777883297277
    x353        c48         1.814505392763494
    x353        c52         1.5311266366609173
    x353        c66         1.0930779652819802
    x353        c68         0.86855241748500844
    x353        c76         1.8681665329656933
    x353        c85         1.0120111290654747
    x353        c93         1.8321385774564123
    x353        c120         1.928813618463971
    x353        c153         0.62745090179010932
    x353        c159         0.51376737678471363
    x353        c162         1.7433814354498847
    x353        c177         0.6464124548791782
    x353        c184         0.12107926667232126
    x353        c185         1.2318058520353665
    x353        c190         0.98786688737486539
    x354        obj        1.6803444225806983
    x354        c7         1.4375413036560265
    x354        c19         1.3009383679624076
    x354        c31         1.8455941541315264
    x354        c37         0.45606821170903644
    x354        c57         0.14702640213611831
    x354        c63         0.19781160326307021
    x354        c81         1.1781304127670844
    x354        c88         0.89352777647885584
    x354        c94         0.7620852599824387
    x354        c98         1.8532894737589372
    x354        c105         0.45441279735606011
    x354        c116         1.5679908275718106
    x354        c119         0.70967157866628428
    x354        c121         1.128757708061539
    x354        c128         0.37437201527017294
    x354        c129         1.0857175069396652
    x354        c140         0.67462713404631292
    x354        c141         0.81938433747573836
    x354        c142         0.41832358595996588
    x354        c166         0.43524786431336759
    x354        c178         1.2342550745573642
    x354        c179         0.44291621100182432
    x354        c186         1.6015994518589078
    x354        c189         1.2100479583345651
    x354        c196         1.9812316951200939
    x354        c199         0.89872918432056181
    x355        obj        6.6396510153136612
    x355        c3         1.0856624495505109
    x355        c9         0.78069934689226783
    x355        c13         0.87932466715038748
    x355        c14         0.10101546209590524
    x355        c17         1.3539644272135329
    x355        c21         1.5222633884898671
    x355        c24         0.81607257324272076
    x355        c35         1.6297396724675632
    x355        c52         1.7057973899703565
    x355        c54         0.54294956888146573
    x355        c67         1.225496173119482
    x355        c74         1.2350400686368901
    x355        c78         0.64417886831779902
    x355        c87         1.904258998058221
    x355        c89         1.9009463869601932
    x355        c92         1.6499920398484655
    x355        c102         1.0933210908983
    x355        c123         0.91594797362752878
    x355        c129         1.1583511930604673
    x355        c132         1.0644001917713553
    x355        c142         1.2946377148305206
    x355        c151         1.4944905789658762
    x355        c154         1.4610538989693806
    x355        c162         0.91719612554256158
    x355        c168         0.81590680577785768
    x355        c189         0.71423608422517626
    x355        c195         0.15877265629948145
    x356        obj        1.9647264866308916
    x356        c41         1.0191256552011967
    x356        c49         0.27179628083505919
    x356        c51         0.65851174052901174
    x356        c53         1.2388339365277272
    x356        c55         1.1615290293285585
    x356        c57         1.2707898973458112
    x356        c71         1.9581041468369342
    x356        c78         1.5909581405673652
    x356        c97         0.48227146693852119
    x356        c105         1.1461408748124871
    x356        c128         0.14956210510795276
    x356        c133         1.2712701595051805
    x356        c149         0.49454058434251036
    x356        c154         0.65802542488576177
    x356        c162         1.186138612452599
    x356        c163         1.5154702518249892
    x356        c180         1.8242660503864503
    x356        c186         1.7385270424108961
    x357        obj        4.8715247210125128
    x357        c23         1.113489825147266
    x357        c25         1.9214615913486468
    x357        c28         0.97136043227416624
    x357        c42         0.45244302087288613
    x357        c58         0.60211906209371624
    x357        c71         0.62409079450464344
    x357        c80         1.2495508897796768
    x357        c109         0.24420587208024089
    x357        c115         1.0021000073824737
    x357        c122         1.0009180785274918
    x357        c130         1.0025537742094743
    x357        c133         1.4143779739211548
    x357        c147         0.76970950778748526
    x357        c151         0.72775105452481392
    x357        c152         1.1794697172092543
    x357        c154         1.1794125597940897
    x357        c155         1.6491257717440184
    x357        c163         1.5779216584534841
    x357        c165         1.9223294549455525
    x357        c174         0.49385326101786398
    x357        c176         0.82810213621013673
    x357        c178         0.68963162052713844
    x357        c187         0.44457346051507185
    x357        c194         0.55975419349787658
    x358        obj        5.289496640319614
    x358        c3         0.47788597456266102
    x358        c6         1.9763792077656159
    x358        c11         0.52255880485584738
    x358        c27         0.1024768994988816
    x358        c34         0.98885947755995796
    x358        c52         1.0791320168724534
    x358        c54         0.73508536175089345
    x358        c58         0.65298725322822249
    x358        c71         0.82541868345648073
    x358        c84         0.29994966227096564
    x358        c92         1.1229304565897331
    x358        c103         1.4941830240767038
    x358        c122         1.4507999772661968
    x358        c131         1.1230985059014202
    x358        c139         0.36799566818252982
    x358        c150         0.81831033816863552
    x358        c164         1.2876071097674837
    x358        c191         1.0877705484874767
    x359        obj        9.6764139445293686
    x359        c10         0.20115343884674378
    x359        c25         0.56917665520537841
    x359        c43         1.399108708724218
    x359        c46         1.1512021990837555
    x359        c48         1.2278754274071084
    x359        c66         1.4283070183056252
    x359        c70         1.0120509834839093
    x359        c74         0.10071812737989679
    x359        c87         0.65711159545400832
    x359        c108         1.4070288835638423
    x359        c119         0.48526944996613142
    x359        c121         1.2085373207116243
    x359        c135         0.49972126448636089
    x359        c147         1.9731051885937014
    x359        c155         1.2863131704700288
    x359        c160         0.16689035801900004
    x359        c163         1.6099810367970206
    x359        c165         1.000437604085898
    x359        c171         1.8210207859842389
    x359        c173         0.57266538617046292
    x359        c189         0.40017274021637261
    x359        c190         1.898383096805043
    x360        obj        4.3229804901423545
    x360        c6         0.1656667027146432
    x360        c26         0.92407832415950431
    x360        c40         1.2215426064666235
    x360        c45         0.94115802308839758
    x360        c53         0.79431197057561431
    x360        c61         1.4982634559705041
    x360        c62         0.48109254477968777
    x360        c70         1.8791536776110578
    x360        c79         1.7448096314909236
    x360        c81         1.8271701133334803
    x360        c87         0.80535902959467387
    x360        c92         1.1955490600359597
    x360        c118         1.4546753010540647
    x360        c120         0.67472228300801007
    x360        c135         0.66039772840222111
    x360        c157         0.95990346160605022
    x360        c166         0.70535502578774778
    x360        c168         1.2846967703422252
    x360        c170         1.5944950899918564
    x360        c185         0.36086309359779667
    x360        c197         1.2075954160471938
    x361        obj        9.909282781274662
    x361        c1         1.9352196860348729
    x361        c2         1.5101026704004878
    x361        c8         0.6416952020203901
    x361        c20         1.0472262676770074
    x361        c27         0.23893654480210952
    x361        c39         1.1080185413741921
    x361        c74         1.3392426482492008
    x361        c75         0.10485978418551289
    x361        c92         0.81614906846471102
    x361        c97         1.4371086287764037
    x361        c98         1.4069782209162616
    x361        c105         1.7202416516257506
    x361        c113         1.4780329528107985
    x361        c123         1.0716412494013521
    x361        c143         1.2802352873835274
    x361        c150         0.74592672123196724
    x361        c152         0.80726598836872643
    x361        c158         0.86683531270206449
    x361        c166         1.9507247654264734
    x361        c169         1.7888773017916877
    x361        c180         1.4830540323350048
    x361        c181         1.9391293394790781
    x361        c193         1.5088289210833357
    x362        obj        2.8203552231322027
    x362        c3         0.57624624230322297
    x362        c5         1.9312898915877734
    x362        c7         1.3036570227706272
    x362        c21         0.53781862171961081
    x362        c81         1.5695738844195173
    x362        c104         1.2903444822693546
    x362        c121         0.68202637611661321
    x362        c125         0.21172293108285867
    x362        c132         1.5996284207586271
    x362        c146         1.4275896802254533
    x362        c147         1.8658546975241979
    x362        c156         1.4306336592172617
    x362        c157         1.7914087733915336
    x362        c166         0.98649753112157745
    x362        c170         1.0350231019115768
    x362        c181         0.83698134075814079
    x363        obj        6.8058092472562128
    x363        c10         0.45255458576765739
    x363        c18         1.0814839127644049
    x363        c22         0.37845750084054752
    x363        c32         1.1435179221736704
    x363        c39         0.1404655010971303
    x363        c54         1.4320901106746693
    x363        c75         0.48175747752302389
    x363        c79         1.0825674860528072
    x363        c90         0.86078923010628672
    x363        c99         0.73840525312920802
    x363        c100         0.64521802445416954
    x363        c132         1.6956055999879456
    x363        c146         0.56485733422123752
    x363        c151         1.9476263697670855
    x363        c152         1.6751147611792236
    x363        c156         0.95365153874464725
    x363        c161         1.5601541625566158
    x363        c162         1.9261984177352836
    x363        c165         1.0183354077509736
    x363        c168         1.5965975713245504
    x364        obj        7.7027467051381233
    x364        c12         0.98900373810117692
    x364        c21         0.61892207839432167
    x364        c25         0.49775520519127459
    x364        c28         1.9564476286628478
    x364        c33         0.12480762676724377
    x364        c39         0.30014459500320634
    x364        c66         1.4157906282830177
    x364        c75         1.432141208690271
    x364        c77         0.70564400791985893
    x364        c83         0.56306075128442912
    x364        c106         0.81787539238174889
    x364        c121         0.34974486801882121
    x364        c131         1.3526346222757348
    x364        c145         1.7067844586866538
    x364        c148         0.698599863840631
    x364        c150         1.4368021048567976
    x364        c155         1.6675269447872589
    x364        c163         1.8693363212167504
    x364        c166         0.20595856081037833
    x364        c182         1.0559459157574373
    x364        c190         0.22631815640275091
    x365        obj        4.6562373648082671
    x365        c2         1.0691134213716271
    x365        c10         1.9637902232731292
    x365        c17         1.9406910697387416
    x365        c29         0.42762592923548182
    x365        c70         1.922222255332819
    x365        c80         0.2646686634879325
    x365        c91         1.8480529631078031
    x365        c95         0.11750751443995426
    x365        c100         0.48033136251867525
    x365        c119         0.94494275647795745
    x365        c135         1.6836026089337659
    x365        c137         0.91581148913790511
    x365        c162         1.8825149968067127
    x365        c168         1.2330688523081343
    x365        c192         1.9456318025782371
    x365        c198         1.7542117716276324
    x366        obj        8.51224430074077
    x366        c6         0.77153804722820807
    x366        c9         0.72519123300667898
    x366        c21         1.7869174072300105
    x366        c26         1.8451646499159033
    x366        c67         0.39972482428631684
    x366        c110         1.2564471207425698
    x366        c116         1.6434238871256313
    x366        c179         0.74393247022263387
    x366        c185         0.5616031292677176
    x366        c190         1.683123833516212
    x367        obj        3.2140987400245815
    x367        c3         1.2874245131077249
    x367        c8         1.7813556093544278
    x367        c11         1.7752963189031692
    x367        c13         1.931907123345711
    x367        c17         1.6916843416197918
    x367        c37         0.43203053695534555
    x367        c60         1.1075349983327645
    x367        c73         0.22474073032430703
    x367        c75         1.5365804158347969
    x367        c78         1.2532915944029492
    x367        c83         0.96335468072653352
    x367        c91         1.8718884709911687
    x367        c95         0.77467158543872694
    x367        c114         1.1773954967437763
    x367        c146         1.7401301056573242
    x367        c147         1.1927798426599279
    x367        c175         1.432614549262698
    x367        c183         0.24220407821907125
    x368        obj        3.9323916676769537
    x368        c1         1.688625983149352
    x368        c9         1.176933160264942
    x368        c10         0.67843352296454495
    x368        c22         1.6208566682855809
    x368        c30         1.1116346305435028
    x368        c49         0.8505644649808165
    x368        c53         1.3685366690616583
    x368        c58         1.925727321293361
    x368        c64         0.42708809697128003
    x368        c71         0.63389736753379722
    x368        c94         1.194789113362992
    x368        c102         0.28143765285141142
    x368        c111         0.32898947812697243
    x368        c125         1.9080575744917474
    x368        c138         0.14796046899825022
    x368        c158         1.5674763643417546
    x368        c177         1.3618376224665005
    x368        c198         0.82632676108220249
    x369        obj        5.2621592850199583
    x369        c2         1.4305710788362047
    x369        c3         1.4730078129980604
    x369        c8         0.2345972114221265
    x369        c16         0.18511281890069747
    x369        c18         0.40055365783976904
    x369        c19         0.71618290984756894
    x369        c66         0.54486819801599806
    x369        c81         0.45092146548297685
    x369        c88         1.3153943010309144
    x369        c97         1.4656548719886751
    x369        c105         1.2988015309184096
    x369        c112         1.0226789951555189
    x369        c119         0.89468379028091594
    x369        c140         0.52479841201945687
    x369        c149         0.3853821941991562
    x369        c154         1.0081696782592884
    x369        c156         1.3155771654347226
    x369        c165         0.91104562002007061
    x369        c175         1.0467314387469071
    x369        c179         1.4024666051540871
    x370        obj        6.8626898638559766
    x370        c8         0.32081955891916158
    x370        c24         1.5891130788027332
    x370        c27         1.9938464463252106
    x370        c34         1.3127945848687217
    x370        c41         1.2804217952094579
    x370        c46         1.981995510589674
    x370        c47         0.92421119692452247
    x370        c53         1.5310963045929784
    x370        c94         1.1818359487597689
    x370        c109         0.74655297368192652
    x370        c112         0.59850235538647556
    x370        c119         0.55248871291522172
    x370        c139         1.0991144979200898
    x370        c159         0.6919561211048616
    x370        c165         0.25216603458943904
    x370        c169         1.6261522521570899
    x370        c180         1.8901250093993323
    x371        obj        9.9887591414081083
    x371        c1         0.10625469394041015
    x371        c12         1.4582952161740526
    x371        c21         1.6103008007416537
    x371        c22         0.31680523347819489
    x371        c23         1.9133839959910381
    x371        c34         0.80484916389911343
    x371        c37         0.98639405413109915
    x371        c44         1.671115517820791
    x371        c53         0.89349858372452751
    x371        c70         1.936752859141281
    x371        c79         0.5190293699593409
    x371        c85         1.2562114096928321
    x371        c95         0.28886688826663542
    x371        c113         1.8992828471704641
    x371        c115         1.0560150579900927
    x371        c116         0.36613343159247502
    x371        c119         1.4463368785601201
    x371        c124         0.79051906379948844
    x371        c128         1.4847345925379802
    x371        c130         1.8935217536688889
    x371        c131         1.0807642346838524
    x371        c136         0.99893559558038314
    x371        c137         0.8551892147971184
    x371        c142         0.32714082071757211
    x371        c146         0.12853833327247555
    x371        c157         0.43198247346642626
    x371        c163         1.6556031216491911
    x371        c174         1.7923289649741196
    x371        c183         1.0384502107203215
    x371        c185         0.85543493330571363
    x372        obj        1.3165634568227307
    x372        c1         0.22581562323674448
    x372        c2         0.77255260770453071
    x372        c30         0.82376168528985427
    x372        c45         0.14005395702042545
    x372        c47         1.9649145449875263
    x372        c54         0.74992535278307515
    x372        c63         1.242171185428999
    x372        c69         0.53642728054158506
    x372        c71         1.3268476535993452
    x372        c85         0.32842658345511017
    x372        c90         1.0807949810124093
    x372        c95         1.6701661694411976
    x372        c102         0.48541908091858588
    x372        c121         1.350098842070053
    x372        c138         1.5840297743839771
    x372        c141         0.22838258299501438
    x372        c144         1.9245333992289069
    x372        c156         1.4991850831025928
    x372        c161         1.6522853837390112
    x372        c190         1.4775044707183334
    x373        obj        1.4874497669013986
    x373        c14         0.92357337210594681
    x373        c20         0.17506269959954335
    x373        c27         0.74631980201499304
    x373        c33         1.8943100013987257
    x373        c45         0.89447861919537064
    x373        c53         0.31387733332148393
    x373        c55         1.9747439134335534
    x373        c60         1.1365361853908595
    x373        c77         0.5792091369459158
    x373        c86         0.62824126729107288
    x373        c87         0.39104305188334854
    x373        c96         1.8466517949365806
    x373        c104         1.6743083450936334
    x373        c129         0.95990706466363485
    x373        c130         0.74227741317088691
    x373        c136         1.8910298001279557
    x373        c139         1.0214226598753444
    x373        c144         0.52842192308284963
    x373        c178         1.5384851807253541
    x373        c188         0.47869494942084634
    x373        c195         1.1248739375362662
    x374        obj        3.2763622014574021
    x374        c1         0.97232154272337878
    x374        c8         1.8786977120328663
    x374        c20         0.76057007159024015
    x374        c24         1.8981035717395587
    x374        c46         1.0800141176799523
    x374        c55         0.42567759545952211
    x374        c83         0.48298883262210712
    x374        c89         0.4648629789414449
    x374        c99         0.7523081712429146
    x374        c106         1.64761047811845
    x374        c107         1.1884637578131854
    x374        c121         0.70184068958032253
    x374        c126         0.39885290428357256
    x374        c134         0.76012428684640343
    x374        c138         1.7507316906474051
    x374        c139         1.7566857879474751
    x374        c141         0.57901172006769297
    x374        c150         1.1047098532936586
    x374        c159         0.56273861070237485
    x374        c167         1.4382644441160655
    x374        c169         0.27171944031985318
    x374        c174         0.16865253162421906
    x374        c191         1.3741533033028615
    x374        c192         0.77297670803285023
    x374        c198         1.7458390932486891
    x375        obj        8.5757562988409184
    x375        c1         1.6782300702407662
    x375        c30         1.4030421704920371
    x375        c32         0.41232786945009592
    x375        c38         0.93401296389037813
    x375        c54         1.0118339021997542
    x375        c72         1.1175419819834711
    x375        c93         0.84380215446514129
    x375        c104         1.5310368504304845
    x375        c108         0.92037351189461147
    x375        c111         1.9853089973136928
    x375        c113         0.670351625568538
    x375        c127         0.82506238601781423
    x375        c133         0.69180179030717492
    x375        c139         1.7843856304562198
    x375        c149         1.6386634434662333
    x375        c151         0.58754015751119248
    x375        c177         0.87895367222150333
    x375        c178         1.5939942158736942
    x375        c186         1.1918580601810727
    x375        c195         0.60844995026670134
    x376        obj        6.5615027793147664
    x376        c0         0.7389944014354628
    x376        c13         0.70083882958920007
    x376        c15         0.82975408856196986
    x376        c25         0.87852337225907273
    x376        c51         1.0814369044551124
    x376        c52         0.92804164627570362
    x376        c55         0.55047888935492173
    x376        c62         0.72605001426294991
    x376        c66         1.3545692218747352
    x376        c73         1.1924238078313931
    x376        c74         0.57688135281173969
    x376        c96         0.37113456623234775
    x376        c100         1.811516386994926
    x376        c115         1.8525990849796961
    x376        c128         1.4849437809487394
    x376        c132         1.4071897567556426
    x376        c148         1.5685250397293555
    x376        c172         0.28598098438449426
    x376        c176         1.153674306765974
    x376        c178         0.17410335744311412
    x376        c187         1.2905954049883801
    x376        c195         0.30575598578692398
    x377        obj        3.4318114430603823
    x377        c1         0.25225713104159841
    x377        c5         1.6902052551820379
    x377        c8         0.63403184535834944
    x377        c23         1.8223837950393869
    x377        c31         1.9752894106519612
    x377        c32         1.211646158981541
    x377        c45         1.3358681365664784
    x377        c47         0.91014633420935676
    x377        c50         0.6473139287202071
    x377        c53         1.9945526248106809
    x377        c57         0.11040303553343703
    x377        c76         1.026376372290797
    x377        c80         1.6746856670750137
    x377        c82         1.5634190575052103
    x377        c87         0.69657243471431229
    x377        c100         1.0616947001177981
    x377        c105         1.6718331553978785
    x377        c118         0.67586609139120402
    x377        c135         1.4097356198208797
    x377        c137         0.86354189430315875
    x377        c151         1.8322335935520073
    x377        c152         0.42988777602699213
    x377        c161         1.9463024367532349
    x377        c164         1.4123423140518698
    x377        c196         1.5908209181142319
    x378        obj        4.643259063655945
    x378        c10         1.3685685559272962
    x378        c18         1.0526681785650036
    x378        c24         1.6056482392760698
    x378        c28         1.7481737602530818
    x378        c34         0.97297074295524155
    x378        c59         1.5244840072206789
    x378        c82         1.968434021810205
    x378        c91         0.41192668175887048
    x378        c100         1.1570829500398863
    x378        c106         0.78545943186775835
    x378        c126         0.26514644006284249
    x378        c127         1.559366277132157
    x378        c148         0.63533905157795634
    x378        c167         1.2979898641946963
    x378        c169         1.1861417827601217
    x378        c174         1.4921780970408751
    x378        c176         1.6996436979754683
    x378        c193         1.3956497615141907
    x379        obj        3.3518172137566116
    x379        c7         0.35957182135865762
    x379        c24         1.6237129520669469
    x379        c55         1.9202866647139625
    x379        c79         0.65191199333182748
    x379        c100         1.3100506298058074
    x379        c115         1.8484418350624887
    x379        c143         1.545820839880542
    x379        c156         1.4675808781883124
    x379        c196         0.9898133415918392
    x379        c199         0.47518873258268746
    x380        obj        7.5819089350003628
    x380        c2         1.0653383405743042
    x380        c12         0.37266383560728256
    x380        c28         0.46956686512485679
    x380        c35         0.54644678152006854
    x380        c38         1.0147607737420989
    x380        c43         0.1563214960169958
    x380        c64         0.46933271529483545
    x380        c68         0.42623797427838062
    x380        c82         1.9855852448100999
    x380        c90         0.41608316271173729
    x380        c91         1.6282976531289628
    x380        c97         0.74878604796604553
    x380        c102         0.97565442209839137
    x380        c114         0.78852747828589576
    x380        c131         0.7616545918114761
    x380        c144         0.10969164947638615
    x380        c145         1.3110632884447366
    x380        c147         0.73758137987335515
    x380        c152         0.22719465311660081
    x380        c154         1.4981357045075601
    x380        c158         1.704819822943263
    x380        c179         0.56260002889168281
    x381        obj        3.4132070663110863
    x381        c0         0.39949581447047466
    x381        c5         0.42102935044789758
    x381        c7         1.3186001127000042
    x381        c16         1.5244288215032058
    x381        c18         1.3803189212706357
    x381        c19         0.18357419084736593
    x381        c21         1.1107993455556751
    x381        c27         1.1855617071526241
    x381        c29         1.36589632829015
    x381        c36         1.2562372649326792
    x381        c80         1.7940568370087415
    x381        c85         1.5920033481192044
    x381        c93         0.69656411563984733
    x381        c97         0.59164819986714101
    x381        c127         1.4047565999955522
    x381        c138         1.9133543209024531
    x381        c143         0.49194343694038423
    x381        c146         0.98114508868798833
    x381        c153         0.70715202575043024
    x381        c183         0.88026344636690645
    x381        c198         1.871549741942141
    x382        obj        4.24225437961646
    x382        c9         1.3246707494112626
    x382        c16         0.90468279398813145
    x382        c28         0.59559596394406888
    x382        c33         1.5528512216698671
    x382        c37         0.18887802233205414
    x382        c58         0.78539164711351339
    x382        c71         1.2731477637730437
    x382        c74         0.84159256352147616
    x382        c91         0.84120076327149285
    x382        c101         1.0831705859093292
    x382        c115         0.58775926035609172
    x382        c130         0.15020618274718181
    x382        c132         1.2556213727357761
    x382        c166         0.67420652563271122
    x382        c172         0.74742915642680641
    x382        c178         1.4866631370321235
    x382        c190         1.4327310831372804
    x382        c191         0.81255214871523462
    x383        obj        2.8507960146610869
    x383        c26         0.2592047653384012
    x383        c36         1.7224077693405588
    x383        c40         0.97603996237119794
    x383        c42         0.13562558199562394
    x383        c46         0.61836840788967062
    x383        c52         0.67972505722915044
    x383        c58         1.586292795928397
    x383        c60         0.24268142175504193
    x383        c64         1.1742833860472042
    x383        c65         1.9937989856827669
    x383        c69         1.8921717297659444
    x383        c70         1.1512526203545765
    x383        c72         1.2340648481599952
    x383        c132         1.562943871918177
    x383        c136         1.8866675380188496
    x383        c142         1.6830186587733964
    x383        c166         0.77159802672884326
    x383        c167         1.1826768675952086
    x383        c170         1.6123062763690224
    x383        c171         0.95247597889817071
    x383        c196         0.37124833315167372
    x384        obj        6.662116536133035
    x384        c4         1.1088394397982084
    x384        c9         1.9316149924588875
    x384        c10         0.35000727020922806
    x384        c15         0.75747625603583002
    x384        c35         0.12294336327186114
    x384        c44         1.011071942023587
    x384        c64         0.71125416997073576
    x384        c69         1.111006369887112
    x384        c88         1.233955684963171
    x384        c91         0.71652779543085821
    x384        c94         0.68849524797709316
    x384        c105         0.4836676842310641
    x384        c112         0.72613694529894202
    x384        c139         0.18321775082520353
    x384        c142         0.59850827204228518
    x384        c147         0.14593892631028543
    x384        c148         0.98394898020750676
    x384        c156         1.2637580490236198
    x384        c174         0.14229097852422171
    x384        c184         1.6700854206135149
    x384        c198         1.2655529140239004
    x385        obj        7.0247520365619192
    x385        c5         0.58116674534232993
    x385        c21         0.94973968578086931
    x385        c26         1.7572445746014462
    x385        c36         0.16599599705024154
    x385        c65         1.8605002870168328
    x385        c77         0.42307837394395797
    x385        c101         0.93653749894023286
    x385        c105         0.77577608021406774
    x385        c119         1.1327202630330966
    x385        c125         1.2309237536664304
    x385        c128         1.0794500973095933
    x385        c145         1.6067786754807389
    x385        c147         0.72186812560570146
    x385        c153         1.9869270937196801
    x385        c172         1.2242618611554943
    x385        c173         1.3300245124004975
    x385        c176         0.54772047384043665
    x385        c189         1.2644787227149659
    x385        c192         0.9590522989257334
    x386        obj        1.7117514388398518
    x386        c7         1.3949335995500411
    x386        c13         1.6357242791440187
    x386        c30         1.1969654606644178
    x386        c37         0.80842700599470774
    x386        c38         1.1537311212861978
    x386        c42         1.4737766364071743
    x386        c44         0.55182191657041502
    x386        c62         1.6382080894001281
    x386        c86         0.72363418011641134
    x386        c96         0.23281297674362209
    x386        c98         0.88175106541466974
    x386        c118         1.1139204764853818
    x386        c124         0.30991459986479175
    x386        c134         1.6923218700216613
    x386        c150         1.8601190080581476
    x386        c155         1.1131017237191088
    x386        c168         1.9869863105260224
    x386        c192         0.88277262846518834
    x386        c193         1.228469973403421
    x387        obj        9.3169702908352772
    x387        c12         0.37934478163524166
    x387        c20         1.6631980570744154
    x387        c26         0.62151760699672265
    x387        c40         1.3197004176412135
    x387        c100         0.29519845143318935
    x387        c104         1.9241885213234076
    x387        c111         1.2519440656174514
    x387        c118         0.74663076753352631
    x387        c127         0.54353703404384646
    x387        c129         1.3556711336601832
    x387        c153         1.0236545132650072
    x387        c161         1.2323690892035057
    x387        c162         0.95492590097135588
    x387        c168         1.0594808727716327
    x387        c175         1.0943788455550811
    x387        c178         1.3038707256013817
    x387        c185         0.17314375013116456
    x387        c189         0.37192348401350628
    x387        c194         0.99584634610130129
    x388        obj        7.9617093906224206
    x388        c0         0.29935737259163919
    x388        c5         1.0143852598047152
    x388        c11         1.0125530041010229
    x388        c16         0.74602125947116138
    x388        c22         0.50801281562426015
    x388        c23         1.0872064805405919
    x388        c34         1.8053493763684136
    x388        c49         1.2476870794649491
    x388        c58         0.93961745741383329
    x388        c68         0.10016608311100998
    x388        c69         1.0787681254360824
    x388        c72         1.9722351565760945
    x388        c103         0.47315250353275917
    x388        c112         1.1476288979567577
    x388        c114         0.79514328050874639
    x388        c121         1.2153132859793312
    x388        c127         0.80389726182879429
    x388        c132         1.275543907104306
    x388        c151         0.55516776433870241
    x388        c171         1.8179081694397488
    x388        c172         1.6818018075426127
    x388        c173         1.7151379594937108
    x389        obj        5.6000128860327125
    x389        c2         1.5113164375133177
    x389        c9         0.11830024901590014
    x389        c13         0.27357770985027363
    x389        c20         1.4714863872056272
    x389        c43         1.9653045268727281
    x389        c55         1.8307171362477108
    x389        c60         0.14445037146528542
    x389        c65         0.11018108992113215
    x389        c66         1.0540124416882481
    x389        c74         0.21472802906505425
    x389        c76         1.2055881448791634
    x389        c97         0.43788827803588171
    x389        c100         1.0538687141302825
    x389        c118         0.31875082383533959
    x389        c132         1.3690263491249048
    x389        c143         1.1959640034257084
    x389        c166         0.34114371456128928
    x389        c170         0.70486371648452717
    x389        c176         0.72047978143541602
    x389        c195         1.2981714176214831
    x390        obj        9.6273177243339543
    x390        c9         1.9504924430994921
    x390        c13         1.1002829634464166
    x390        c14         0.9396192030600975
    x390        c19         1.4639266726130682
    x390        c26         0.83009861792044204
    x390        c40         0.58320395024380933
    x390        c42         0.26626178595670869
    x390        c45         0.91424017544397351
    x390        c48         0.80368643553762176
    x390        c55         0.9163594974138265
    x390        c64         1.9841829075408521
    x390        c77         1.4476603938568444
    x390        c86         1.2878807636522067
    x390        c89         1.4706427033887604
    x390        c95         1.8892288814857134
    x390        c126         0.78709044175488541
    x390        c143         1.1956350917624963
    x390        c145         1.7961867674568803
    x390        c146         1.7883075208181169
    x390        c160         1.0006099553182739
    x390        c164         1.6985941515131449
    x390        c181         1.3826235555199125
    x390        c185         0.96041099917520023
    x390        c186         1.5161095795585944
    x390        c190         1.7059069486881775
    x391        obj        9.7551538297625839
    x391        c3         1.1528205003605092
    x391        c7         1.2803101175080014
    x391        c11         1.889177441394688
    x391        c15         0.37477985096126842
    x391        c31         1.2727723874800076
    x391        c39         0.47746285309024039
    x391        c43         0.40473784237682009
    x391        c51         0.39940883423302687
    x391        c53         1.9147906151965108
    x391        c59         1.1540296258425806
    x391        c64         0.56051985626758749
    x391        c67         1.8197179042415854
    x391        c69         1.2588173465984207
    x391        c81         0.31730835619933184
    x391        c86         1.6971200455642297
    x391        c90         1.5348318358751529
    x391        c101         0.57446399842301232
    x391        c110         0.56489637994911779
    x391        c130         0.53170049253337925
    x391        c140         1.0718708987151373
    x391        c171         1.7317354310190276
    x391        c173         1.4754595121644083
    x392        obj        2.4878564487697883
    x392        c3         1.9934646828449514
    x392        c11         1.1013495328776606
    x392        c18         1.4155412824829665
    x392        c47         1.9690312413358115
    x392        c66         1.1110216327692655
    x392        c67         0.74415280307064335
    x392        c78         0.52644121314571968
    x392        c84         1.9844110778444288
    x392        c88         1.5632065876829033
    x392        c92         0.70644580964801473
    x392        c94         0.34917252645085917
    x392        c128         1.7831027239367638
    x392        c149         1.3945993525398639
    x392        c159         1.5600377731951425
    x392        c167         0.91170946945675035
    x392        c170         1.368970145055896
    x392        c174         0.23488853045713515
    x392        c196         1.2678299803762947
    x393        obj        2.2022031751118325
    x393        c17         1.3371501970277482
    x393        c32         0.36071467954157921
    x393        c49         0.70948653195198241
    x393        c53         0.20190325002569715
    x393        c65         1.9640560717982392
    x393        c74         1.3614324595292275
    x393        c87         1.3191421692037055
    x393        c90         1.0143339409675083
    x393        c129         0.80095829394641072
    x393        c141         0.6829724627731526
    x393        c159         1.0225659964634242
    x393        c179         0.50476193542075309
    x393        c185         1.6615249558160321
    x393        c192         1.0704687585426726
    x394        obj        4.3800100402822668
    x394        c18         1.5455086963893645
    x394        c26         1.0375494051453431
    x394        c35         0.82215339551587985
    x394        c40         0.12882628757859266
    x394        c49         1.7258054897446968
    x394        c54         1.1206217755999552
    x394        c63         0.2559711257841748
    x394        c89         1.2055248278523587
    x394        c103         0.74829345541343129
    x394        c109         1.6117986248675849
    x394        c110         1.0494829985679106
    x394        c133         1.2804735910415423
    x394        c135         1.0724992789130854
    x394        c147         1.8055647354470685
    x394        c154         1.6860345797614413
    x394        c172         1.6358360264009906
    x394        c175         0.5756888420616505
    x394        c179         1.2844374441773572
    x394        c197         0.65188370568376364
    x395        obj        3.5350926627522421
    x395        c7         1.0725981024029265
    x395        c10         0.618851996358044
    x395        c27         0.43915342881456154
    x395        c28         0.78941827665938524
    x395        c32         0.80157504029246629
    x395        c41         1.7755723809441533
    x395        c49         1.9864048667280108
    x395        c51         0.64951931531982587
    x395        c77         1.7707594419463963
    x395        c80         1.5667974593436753
    x395        c88         1.0772262697229749
    x395        c107         0.13712219627016112
    x395        c129         1.6562357288948122
    x395        c145         1.0122514557056268
    x395        c157         0.68437103858927961
    x395        c167         1.7280100740555944
    x395        c187         1.4468821511640655
    x396        obj        2.8067652834450403
    x396        c15         0.95814358968532753
    x396        c31         0.17479471812379671
    x396        c36         1.5490479847450864
    x396        c38         0.87037809118214604
    x396        c50         1.8554693312483195
    x396        c60         1.154322709909938
    x396        c76         0.7293588855845996
    x396        c93         0.93000324206101126
    x396        c105         1.0421478174672931
    x396        c107         0.88547409457688941
    x396        c118         1.1486856795506935
    x396        c147         1.7430715696828967
    x396        c160         0.19346475588031811
    x396        c163         0.36829398016945059
    x396        c171         0.77180662781017961
    x396        c187         0.30845058128226949
    x396        c188         0.22123308122089136
    x396        c196         0.48909523875568794
    x397        obj        5.6075531589189866
    x397        c3         1.0578284734672487
    x397        c6         0.25724655299635363
    x397        c26         1.8956228536154236
    x397        c52         1.5416306586299779
    x397        c54         0.62785998876304439
    x397        c61         1.3508392231187716
    x397        c64         1.9137298205315065
    x397        c85         0.34240304799471877
    x397        c97         1.5934910833998894
    x397        c98         1.6488266293130096
    x397        c112         0.27793861737241721
    x397        c116         0.67263280232200606
    x397        c125         1.0854461991392819
    x397        c133         1.6519134035220382
    x397        c144         1.8980331573461529
    x397        c145         1.1554950536729403
    x397        c152         0.37087301650826177
    x397        c172         1.6700240308849432
    x397        c173         1.1575707995211593
    x397        c189         0.46836503369701499
    x397        c194         1.8361705900107765
    x397        c198         0.53184716846863533
    x398        obj        5.1690201698872915
    x398        c0         0.47327121201609812
    x398        c40         1.2489678312091237
    x398        c48         1.3226251418160995
    x398        c60         0.61981334163451296
    x398        c65         0.1581890349985233
    x398        c81         0.26489559377713467
    x398        c92         0.581255445176177
    x398        c100         0.63344811408758073
    x398        c112         0.41356493033573638
    x398        c115         0.17450611350637765
    x398        c117         1.3650785058928787
    x398        c118         1.2835232343430538
    x398        c145         1.7143866772003333
    x398        c153         0.84966549048767892
    x398        c182         0.59186125146333279
    x398        c186         1.4531896513056264
    x398        c188         0.86061424802260122
    x399        obj        1.1295432054320163
    x399        c2         1.6607803048991858
    x399        c4         0.75873468819354717
    x399        c25         1.6701972087604338
    x399        c47         1.138900820672009
    x399        c66         0.55931377586645847
    x399        c75         1.5354028577865744
    x399        c81         1.5957350245119766
    x399        c86         1.9447492803552173
    x399        c96         0.99100093287965096
    x399        c99         1.8848398973162872
    x399        c139         0.36149682801885874
    x399        c161         0.36712756871685359
    x399        c167         0.45485928234000561
    x399        c168         0.8694790045926778
    x399        c178         1.3595014021388108
    x399        c184         0.71339994853019895
    x399        c193         1.1255271519156742
RHS
    rhs       c0         16.12515135709388
    rhs       c1         14.559963014199074
    rhs       c2         15.094614528620021
    rhs       c3         15.373249044637337
    rhs       c4         14.875592648456658
    rhs       c5         16.481317589235626
    rhs       c6         14.96314584593819
    rhs       c7         16.273915227429754
    rhs       c8         17.242726474857317
    rhs       c9         16.764478587037665
    rhs       c10         15.921520828417748
    rhs       c11         13.258401983141219
    rhs       c12         13.482918050929184
    rhs       c13         16.022702680841956
    rhs       c14         16.606213106053037
    rhs       c15         15.54427875899213
    rhs       c16         14.954562458868393
    rhs       c17         15.722726591914864
    rhs       c18         15.288576876090909
    rhs       c19         19.280750996724645
    rhs       c20         15.677760003794925
    rhs       c21         17.593565141363008
    rhs       c22         13.479638712564773
    rhs       c23         14.880165288860562
    rhs       c24         17.881250918000934
    rhs       c25         17.832237359507381
    rhs       c26         16.941755191398183
    rhs       c27         15.618019015030185
    rhs       c28         15.813758356949339
    rhs       c29         14.572789435683237
    rhs       c30         16.420468640147888
    rhs       c31         14.718925846084373
    rhs       c32         16.781117445834198
    rhs       c33         14.046326348986577
    rhs       c34         16.41270897632872
    rhs       c35         15.787717820347655
    rhs       c36         14.405758036715731
    rhs       c37         13.658518013595051
    rhs       c38         16.719701823397273
    rhs       c39         16.041687595670957
    rhs       c40         15.143539047346719
    rhs       c41         16.039547618078497
    rhs       c42         15.679840250087507
    rhs       c43         15.742224197663589
    rhs       c44         14.403671213514063
    rhs       c45         17.172284417188152
    rhs       c46         15.990860163807284
    rhs       c47         18.586380033244993
    rhs       c48         17.426637249306562
    rhs       c49         14.636487664524678
    rhs       c50         16.110290977249871
    rhs       c51         16.31590126403616
    rhs       c52         15.711800597545768
    rhs       c53         18.074670330663206
    rhs       c54         13.766803210117297
    rhs       c55         15.1440318376749
    rhs       c56         16.130528709998725
    rhs       c57         14.002906459405532
    rhs       c58         16.660198741170372
    rhs       c59         16.675295834895753
    rhs       c60         18.135760789933016
    rhs       c61         15.910444388110722
    rhs       c62         14.517821156571655
    rhs       c63         13.981063557027589
    rhs       c64         17.600915718999655
    rhs       c65         17.929364273103889
    rhs       c66         15.44514617169555
    rhs       c67         14.975532277667662
    rhs       c68         15.660316285054286
    rhs       c69         16.851621055287612
    rhs       c70         16.520552258003484
    rhs       c71         15.305561520780282
    rhs       c72         16.215266477067338
    rhs       c73         16.800368287897079
    rhs       c74         14.983595586409733
    rhs       c75         17.396764853365763
    rhs       c76         15.37101577488383
    rhs       c77         17.686811224911839
    rhs       c78         15.91793421094664
    rhs       c79         14.188345507032034
    rhs       c80         14.3044063977842
    rhs       c81         14.417724118762159
    rhs       c82         17.100679616362179
    rhs       c83         15.41726904770931
    rhs       c84         15.208149935816275
    rhs       c85         15.710818282012362
    rhs       c86         17.086551800651289
    rhs       c87         14.810874277970768
    rhs       c88         15.003927665774359
    rhs       c89         15.729699508385847
    rhs       c90         19.070056318299589
    rhs       c91         14.748314425986644
    rhs       c92         16.230542974927882
    rhs       c93         18.252880043845781
    rhs       c94         14.325421388293691
    rhs       c95         13.945719053182291
    rhs       c96         16.374245230264872
    rhs       c97         15.683798759394513
    rhs       c98         16.372446029035153
    rhs       c99         17.094098830558579
    rhs       c100         17.148606281834201
    rhs       c101         16.565322028924296
    rhs       c102         14.946193982516263
    rhs       c103         14.917135466294434
    rhs       c104         16.906376541826273
    rhs       c105         15.667493069065273
    rhs       c106         18.384010470030752
    rhs       c107         15.146701728772209
    rhs       c108         16.218150488866353
    rhs       c109         16.76213017674851
    rhs       c110         17.062304794983596
    rhs       c111         15.290752997305214
    rhs       c112         14.632504866205421
    rhs       c113         16.265647278070073
    rhs       c114         18.621900539900476
    rhs       c115         17.103138579382826
    rhs       c116         13.165360217732109
    rhs       c117         14.668724500733536
    rhs       c118         15.43163074461547
    rhs       c119         15.586629246759621
    rhs       c120         15.623733452717019
    rhs       c121         15.247159818154973
    rhs       c122         17.463424315449952
    rhs       c123         15.737214847919555
    rhs       c124         15.551687235590263
    rhs       c125         16.58188049086905
    rhs       c126         14.18157590880663
    rhs       c127         13.454555452167307
    rhs       c128         17.10936734584007
    rhs       c129         14.94242478103139
    rhs       c130         13.732288272781146
    rhs       c131         15.549941131005923
    rhs       c132         18.377465524841362
    rhs       c133         16.986261592459041
    rhs       c134         16.261130511928606
    rhs       c135         14.722284098340777
    rhs       c136         18.460267713536833
    rhs       c137         14.274744277907352
    rhs       c138         19.028437033028052
    rhs       c139         15.397994798395803
    rhs       c140         15.958756322487492
    rhs       c141         16.683970043794059
    rhs       c142         15.706212843889695
    rhs       c143         15.771322937859594
    rhs       c144         13.741470073695456
    rhs       c145         16.699685582512412
    rhs       c146         16.951038848313548
    rhs       c147         15.948797393983066
    rhs       c148         17.115803306893216
    rhs       c149         14.209370823550863
    rhs       c150         16.332680509120049
    rhs       c151         15.373940497157973
    rhs       c152         14.274264157767806
    rhs       c153         12.92257288748146
    rhs       c154         15.317626771078535
    rhs       c155         16.952272241927151
    rhs       c156         19.121496211161347
    rhs       c157         18.291372728758954
    rhs       c158         13.948075737899877
    rhs       c159         16.030031904700888
    rhs       c160         14.902385371661476
    rhs       c161         15.328101089408941
    rhs       c162         18.620821200711188
    rhs       c163         17.069172102308094
    rhs       c164         15.338537728085743
    rhs       c165         15.524407084070432
    rhs       c166         16.094087158585076
    rhs       c167         15.357016670285876
    rhs       c168         15.950959408851672
    rhs       c169         17.801635926413542
    rhs       c170         17.678985067835725
    rhs       c171         16.415316412789203
    rhs       c172         16.52817690536434
    rhs       c173         19.977024164716596
    rhs       c174         14.074645251664149
    rhs       c175         14.749160016155139
    rhs       c176         14.905909728960797
    rhs       c177         17.200983363989184
    rhs       c178         15.703796392741973
    rhs       c179         16.036718893040643
    rhs       c180         17.014426952836256
    rhs       c181         14.975881837930897
    rhs       c182         15.838367762603509
    rhs       c183         14.347773930515286
    rhs       c184         14.306427987018683
    rhs       c185         14.474804720464654
    rhs       c186         15.634503106573286
    rhs       c187         17.50215314298984
    rhs       c188         14.68621925881277
    rhs       c189         14.955950543127059
    rhs       c190         16.847137505676979
    rhs       c191         15.754698728334262
    rhs       c192         16.517717820274864
    rhs       c193         17.32290313542055
    rhs       c194         15.565115427773378
    rhs       c195         17.660844707773055
    rhs       c196         15.072858090719578
    rhs       c197         15.626072102061308
    rhs       c198         14.91451181177659
    rhs       c199         13.514356862178715
BOUNDS
 LO bnd       x0         0
 UP bnd       x0         1
 LO bnd       x1         0
 UP bnd       x1         1
 LO bnd       x2         0
 UP bnd       x2         1
 LO bnd       x3         0
 UP bnd       x3         1
 LO bnd       x4         0
 UP bnd       x4         1
 LO bnd       x5         0
 UP bnd       x5         1
 LO bnd       x6         0
 UP bnd       x6         1
 LO bnd       x7         0
 UP bnd       x7         1
 LO bnd       x8         0
 UP bnd       x8         1
 LO bnd       x9         0
 UP bnd       x9         1
 LO bnd       x10         0
 UP bnd       x10         1
 LO bnd       x11         0
 UP bnd       x11         1
 LO bnd       x12         0
 UP bnd       x12         1
 LO bnd       x13         0
 UP bnd       x13         1
 LO bnd       x14         0
 UP bnd       x14         1
 LO bnd       x15         0
 UP bnd       x15         1
 LO bnd       x16         0
 UP bnd       x16         1
 LO bnd       x17         0
 UP bnd       x17         1
 LO bnd       x18         0
 UP bnd       x18         1
 LO bnd       x19         0
 UP bnd       x19         1
 LO bnd       x20         0
 UP bnd       x20         1
 LO bnd       x21         0
 UP bnd       x21         1
 LO bnd       x22         0
 UP bnd       x22         1
 LO bnd       x23         0
 UP bnd       x23         1
 LO bnd       x24         0
 UP bnd       x24         1
 LO bnd       x25         0
 UP bnd       x25         1
 LO bnd       x26         0
 UP bnd       x26         1
 LO bnd       x27         0
 UP bnd       x27         1
 LO bnd       x28         0
 UP bnd       x28         1
 LO bnd       x29         0
 UP bnd       x29         1
 LO bnd       x30         0
 UP bnd       x30         1
 LO bnd       x31         0
 UP bnd       x31         1
 LO bnd       x32         0
 UP bnd       x32         1
 LO bnd       x33         0
 UP bnd       x33         1
 LO bnd       x34         0
 UP bnd       x34         1
 LO bnd       x35         0
 UP bnd       x35         1
 LO bnd       x36         0
 UP bnd       x36         1
 LO bnd       x37         0
 UP bnd       x37         1
 LO bnd       x38         0
 UP bnd       x38         1
 LO bnd       x39         0
 UP bnd       x39         1
 LO bnd       x40         0
 UP bnd       x40         1
 LO bnd       x41         0
 UP bnd       x41         1
 LO bnd       x42         0
 UP bnd       x42         1
 LO bnd       x43         0
 UP bnd       x43         1
 LO bnd       x44         0
 UP bnd       x44         1
 LO bnd       x45         0
 UP bnd       x45         1
 LO bnd       x46         0
 UP bnd       x46         1
 LO bnd       x47         0
 UP bnd       x47         1
 LO bnd       x48         0
 UP bnd       x48         1
 LO bnd       x49         0
 UP bnd       x49         1
 LO bnd       x50         0
 UP bnd       x50         1
 LO bnd       x51         0
 UP bnd       x51         1
 LO bnd       x52         0
 UP bnd       x52         1
 LO bnd       x53         0
 UP bnd       x53         1
 LO bnd       x54         0
 UP bnd       x54         1
 LO bnd       x55         0
 UP bnd       x55         1
 LO bnd       x56         0
 UP bnd       x56         1
 LO bnd       x57         0
 UP bnd       x57         1
 LO bnd       x58         0
 UP bnd       x58         1
 LO bnd       x59         0
 UP bnd       x59         1
 LO bnd       x60         0
 UP bnd       x60         1
 LO bnd       x61         0
 UP bnd       x61         1
 LO bnd       x62         0
 UP bnd       x62         1
 LO bnd       x63         0
 UP bnd       x63         1
 LO bnd       x64         0
 UP bnd       x64         1
 LO bnd       x65         0
 UP bnd       x65         1
 LO bnd       x66         0
 UP bnd       x66         1
 LO bnd       x67         0
 UP bnd       x67         1
 LO bnd       x68         0
 UP bnd       x68         1
 LO bnd       x69         0
 UP bnd       x69         1
 LO bnd       x70         0
 UP bnd       x70         1
 LO bnd       x71         0
 UP bnd       x71         1
 LO bnd       x72         0
 UP bnd       x72         1
 LO bnd       x73         0
 UP bnd       x73         1
 LO bnd       x74         0
 UP bnd       x74         1
 LO bnd       x75         0
 UP bnd       x75         1
 LO bnd       x76         0
 UP bnd       x76         1
 LO bnd       x77         0
 UP bnd       x77         1
 LO bnd       x78         0
 UP bnd       x78         1
 LO bnd       x79         0
 UP bnd       x79         1
 LO bnd       x80         0
 UP bnd       x80         1
 LO bnd       x81         0
 UP bnd       x81         1
 LO bnd       x82         0
 UP bnd       x82         1
 LO bnd       x83         0
 UP bnd       x83         1
 LO bnd       x84         0
 UP bnd       x84         1
 LO bnd       x85         0
 UP bnd       x85         1
 LO bnd       x86         0
 UP bnd       x86         1
 LO bnd       x87         0
 UP bnd       x87         1
 LO bnd       x88         0
 UP bnd       x88         1
 LO bnd       x89         0
 UP bnd       x89         1
 LO bnd       x90         0
 UP bnd       x90         1
 LO bnd       x91         0
 UP bnd       x91         1
 LO bnd       x92         0
 UP bnd       x92         1
 LO bnd       x93         0
 UP bnd       x93         1
 LO bnd       x94         0
 UP bnd       x94         1
 LO bnd       x95         0
 UP bnd       x95         1
 LO bnd       x96         0
 UP bnd       x96         1
 LO bnd       x97         0
 UP bnd       x97         1
 LO bnd       x98         0
 UP bnd       x98         1
 LO bnd       x99         0
 UP bnd       x99         1
 LO bnd       x100         0
 UP bnd       x100         1
 LO bnd       x101         0
 UP bnd       x101         1
 LO bnd       x102         0
 UP bnd       x102         1
 LO bnd       x103         0
 UP bnd       x103         1
 LO bnd       x104         0
 UP bnd       x104         1
 LO bnd       x105         0
 UP bnd       x105         1
 LO bnd       x106         0
 UP bnd       x106         1
 LO bnd       x107         0
 UP bnd       x107         1
 LO bnd       x108         0
 UP bnd       x108         1
 LO bnd       x109         0
 UP bnd       x109         1
 LO bnd       x110         0
 UP bnd       x110         1
 LO bnd       x111         0
 UP bnd       x111         1
 LO bnd       x112         0
 UP bnd       x112         1
 LO bnd       x113         0
 UP bnd       x113         1
 LO bnd       x114         0
 UP bnd       x114         1
 LO bnd       x115         0
 UP bnd       x115         1
 LO bnd       x116         0
 UP bnd       x116         1
 LO bnd       x117         0
 UP bnd       x117         1
 LO bnd       x118         0
 UP bnd       x118         1
 LO bnd       x119         0
 UP bnd       x119         1
 LO bnd       x120         0
 UP bnd       x120         1
 LO bnd       x121         0
 UP bnd       x121         1
 LO bnd       x122         0
 UP bnd       x122         1
 LO bnd       x123         0
 UP bnd       x123         1
 LO bnd       x124         0
 UP bnd       x124         1
 LO bnd       x125         0
 UP bnd       x125         1
 LO bnd       x126         0
 UP bnd       x126         1
 LO bnd       x127         0
 UP bnd       x127         1
 LO bnd       x128         0
 UP bnd       x128         1
 LO bnd       x129         0
 UP bnd       x129         1
 LO bnd       x130         0
 UP bnd       x130         1
 LO bnd       x131         0
 UP bnd       x131         1
 LO bnd       x132         0
 UP bnd       x132         1
 LO bnd       x133         0
 UP bnd       x133         1
 LO bnd       x134         0
 UP bnd       x134         1
 LO bnd       x135         0
 UP bnd       x135         1
 LO bnd       x136         0
 UP bnd       x136         1
 LO bnd       x137         0
 UP bnd       x137         1
 LO bnd       x138         0
 UP bnd       x138         1
 LO bnd       x139         0
 UP bnd       x139         1
 LO bnd       x140         0
 UP bnd       x140         1
 LO bnd       x141         0
 UP bnd       x141         1
 LO bnd       x142         0
 UP bnd       x142         1
 LO bnd       x143         0
 UP bnd       x143         1
 LO bnd       x144         0
 UP bnd       x144         1
 LO bnd       x145         0
 UP bnd       x145         1
 LO bnd       x146         0
 UP bnd       x146         1
 LO bnd       x147         0
 UP bnd       x147         1
 LO bnd       x148         0
 UP bnd       x148         1
 LO bnd       x149         0
 UP bnd       x149         1
 LO bnd       x150         0
 UP bnd       x150         1
 LO bnd       x151         0
 UP bnd       x151         1
 LO bnd       x152         0
 UP bnd       x152         1
 LO bnd       x153         0
 UP bnd       x153         1
 LO bnd       x154         0
 UP bnd       x154         1
 LO bnd       x155         0
 UP bnd       x155         1
 LO bnd       x156         0
 UP bnd       x156         1
 LO bnd       x157         0
 UP bnd       x157         1
 LO bnd       x158         0
 UP bnd       x158         1
 LO bnd       x159         0
 UP bnd       x159         1
 LO bnd       x160         0
 UP bnd       x160         1
 LO bnd       x161         0
 UP bnd       x161         1
 LO bnd       x162         0
 UP bnd       x162         1
 LO bnd       x163         0
 UP bnd       x163         1
 LO bnd       x164         0
 UP bnd       x164         1
 LO bnd       x165         0
 UP bnd       x165         1
 LO bnd       x166         0
 UP bnd       x166         1
 LO bnd       x167         0
 UP bnd       x167         1
 LO bnd       x168         0
 UP bnd       x168         1
 LO bnd       x169         0
 UP bnd       x169         1
 LO bnd       x170         0
 UP bnd       x170         1
 LO bnd       x171         0
 UP bnd       x171         1
 LO bnd       x172         0
 UP bnd       x172         1
 LO bnd       x173         0
 UP bnd       x173         1
 LO bnd       x174         0
 UP bnd       x174         1
 LO bnd       x175         0
 UP bnd       x175         1
 LO bnd       x176         0
 UP bnd       x176         1
 LO bnd       x177         0
 UP bnd       x177         1
 LO bnd       x178         0
 UP bnd       x178         1
 LO bnd       x179         0
 UP bnd       x179         1
 LO bnd       x180         0
 UP bnd       x180         1
 LO bnd       x181         0
 UP bnd       x181         1
 LO bnd       x182         0
 UP bnd       x182         1
 LO bnd       x183         0
 UP bnd       x183         1
 LO bnd       x184         0
 UP bnd       x184         1
 LO bnd       x185         0
 UP bnd       x185         1
 LO bnd       x186         0
 UP bnd       x186         1
 LO bnd       x187         0
 UP bnd       x187         1
 LO bnd       x188         0
 UP bnd       x188         1
 LO bnd       x189         0
 UP bnd       x189         1
 LO bnd       x190         0
 UP bnd       x190         1
 LO bnd       x191         0
 UP bnd       x191         1
 LO bnd       x192         0
 UP bnd       x192         1
 LO bnd       x193         0
 UP bnd       x193         1
 LO bnd       x194         0
 UP bnd       x194         1
 LO bnd       x195         0
 UP bnd       x195         1
 LO bnd       x196         0
 UP bnd       x196         1
 LO bnd       x197         0
 UP bnd       x197         1
 LO bnd       x198         0
 UP bnd       x198         1
 LO bnd       x199         0
 UP bnd       x199         1
 LO bnd       x200         0
 UP bnd       x200         1
 LO bnd       x201         0
 UP bnd       x201         1
 LO bnd       x202         0
 UP bnd       x202         1
 LO bnd       x203         0
 UP bnd       x203         1
 LO bnd       x204         0
 UP bnd       x204         1
 LO bnd       x205         0
 UP bnd       x205         1
 LO bnd       x206         0
 UP bnd       x206         1
 LO bnd       x207         0
 UP bnd       x207         1
 LO bnd       x208         0
 UP bnd       x208         1
 LO bnd       x209         0
 UP bnd       x209         1
 LO bnd       x210         0
 UP bnd       x210         1
 LO bnd       x211         0
 UP bnd       x211         1
 LO bnd       x212         0
 UP bnd       x212         1
 LO bnd       x213         0
 UP bnd       x213         1
 LO bnd       x214         0
 UP bnd       x214         1
 LO bnd       x215         0
 UP bnd       x215         1
 LO bnd       x216         0
 UP bnd       x216         1
 LO bnd       x217         0
 UP bnd       x217         1
 LO bnd       x218         0
 UP bnd       x218         1
 LO bnd       x219         0
 UP bnd       x219         1
 LO bnd       x220         0
 UP bnd       x220         1
 LO bnd       x221         0
 UP bnd       x221         1
 LO bnd       x222         0
 UP bnd       x222         1
 LO bnd       x223         0
 UP bnd       x223         1
 LO bnd       x224         0
 UP bnd       x224         1
 LO bnd       x225         0
 UP bnd       x225         1
 LO bnd       x226         0
 UP bnd       x226         1
 LO bnd       x227         0
 UP bnd       x227         1
 LO bnd       x228         0
 UP bnd       x228         1
 LO bnd       x229         0
 UP bnd       x229         1
 LO bnd       x230         0
 UP bnd       x230         1
 LO bnd       x231         0
 UP bnd       x231         1
 LO bnd       x232         0
 UP bnd       x232         1
 LO bnd       x233         0
 UP bnd       x233         1
 LO bnd       x234         0
 UP bnd       x234         1
 LO bnd       x235         0
 UP bnd       x235         1
 LO bnd       x236         0
 UP bnd       x236         1
 LO bnd       x237         0
 UP bnd       x237         1
 LO bnd       x238         0
 UP bnd       x238         1
 LO bnd       x239         0
 UP bnd       x239         1
 LO bnd       x240         0
 UP bnd       x240         1
 LO bnd       x241         0
 UP bnd       x241         1
 LO bnd       x242         0
 UP bnd       x242         1
 LO bnd       x243         0
 UP bnd       x243         1
 LO bnd       x244         0
 UP bnd       x244         1
 LO bnd       x245         0
 UP bnd       x245         1
 LO bnd       x246         0
 UP bnd       x246         1
 LO bnd       x247         0
 UP bnd       x247         1
 LO bnd       x248         0
 UP bnd       x248         1
 LO bnd       x249         0
 UP bnd       x249         1
 LO bnd       x250         0
 UP bnd       x250         1
 LO bnd       x251         0
 UP bnd       x251         1
 LO bnd       x252         0
 UP bnd       x252         1
 LO bnd       x253         0
 UP bnd       x253         1
 LO bnd       x254         0
 UP bnd       x254         1
 LO bnd       x255         0
 UP bnd       x255         1
 LO bnd       x256         0
 UP bnd       x256         1
 LO bnd       x257         0
 UP bnd       x257         1
 LO bnd       x258         0
 UP bnd       x258         1
 LO bnd       x259         0
 UP bnd       x259         1
 LO bnd       x260         0
 UP bnd       x260         1
 LO bnd       x261         0
 UP bnd       x261         1
 LO bnd       x262         0
 UP bnd       x262         1
 LO bnd       x263         0
 UP bnd       x263         1
 LO bnd       x264         0
 UP bnd       x264         1
 LO bnd       x265         0
 UP bnd       x265         1
 LO bnd       x266         0
 UP bnd       x266         1
 LO bnd       x267         0
 UP bnd       x267         1
 LO bnd       x268         0
 UP bnd       x268         1
 LO bnd       x269         0
 UP bnd       x269         1
 LO bnd       x270         0
 UP bnd       x270         1
 LO bnd       x271         0
 UP bnd       x271         1
 LO bnd       x272         0
 UP bnd       x272         1
 LO bnd       x273         0
 UP bnd       x273         1
 LO bnd       x274         0
 UP bnd       x274         1
 LO bnd       x275         0
 UP bnd       x275         1
 LO bnd       x276         0
 UP bnd       x276         1
 LO bnd       x277         0
 UP bnd       x277         1
 LO bnd       x278         0
 UP bnd       x278         1
 LO bnd       x279         0
 UP bnd       x279         1
 LO bnd       x280         0
 UP bnd       x280         1
 LO bnd       x281         0
 UP bnd       x281         1
 LO bnd       x282         0
 UP bnd       x282         1
 LO bnd       x283         0
 UP bnd       x283         1
 LO bnd       x284         0
 UP bnd       x284         1
 LO bnd       x285         0
 UP bnd       x285         1
 LO bnd       x286         0
 UP bnd       x286         1
 LO bnd       x287         0
 UP bnd       x287         1
 LO bnd       x288         0
 UP bnd       x288         1
 LO bnd       x289         0
 UP bnd       x289         1
 LO bnd       x290         0
 UP bnd       x290         1
 LO bnd       x291         0
 UP bnd       x291         1
 LO bnd       x292         0
 UP bnd       x292         1
 LO bnd       x293         0
 UP bnd       x293         1
 LO bnd       x294         0
 UP bnd       x294         1
 LO bnd       x295         0
 UP bnd       x295         1
 LO bnd       x296         0
 UP bnd       x296         1
 LO bnd       x297         0
 UP bnd       x297         1
 LO bnd       x298         0
 UP bnd       x298         1
 LO bnd       x299         0
 UP bnd       x299         1
 LO bnd       x300         0
 UP bnd       x300         1
 LO bnd       x301         0
 UP bnd       x301         1
 LO bnd       x302         0
 UP bnd       x302         1
 LO bnd       x303         0
 UP bnd       x303         1
 LO bnd       x304         0
 UP bnd       x304         1
 LO bnd       x305         0
 UP bnd       x305         1
 LO bnd       x306         0
 UP bnd       x306         1
 LO bnd       x307         0
 UP bnd       x307         1
 LO bnd       x308         0
 UP bnd       x308         1
 LO bnd       x309         0
 UP bnd       x309         1
 LO bnd       x310         0
 UP bnd       x310         1
 LO bnd       x311         0
 UP bnd       x311         1
 LO bnd       x312         0
 UP bnd       x312         1
 LO bnd       x313         0
 UP bnd       x313         1
 LO bnd       x314         0
 UP bnd       x314         1
 LO bnd       x315         0
 UP bnd       x315         1
 LO bnd       x316         0
 UP bnd       x316         1
 LO bnd       x317         0
 UP bnd       x317         1
 LO bnd       x318         0
 UP bnd       x318         1
 LO bnd       x319         0
 UP bnd       x319         1
 LO bnd       x320         0
 UP bnd       x320         1
 LO bnd       x321         0
 UP bnd       x321         1
 LO bnd       x322         0
 UP bnd       x322         1
 LO bnd       x323         0
 UP bnd       x323         1
 LO bnd       x324         0
 UP bnd       x324         1
 LO bnd       x325         0
 UP bnd       x325         1
 LO bnd       x326         0
 UP bnd       x326         1
 LO bnd       x327         0
 UP bnd       x327         1
 LO bnd       x328         0
 UP bnd       x328         1
 LO bnd       x329         0
 UP bnd       x329         1
 LO bnd       x330         0
 UP bnd       x330         1
 LO bnd       x331         0
 UP bnd       x331         1
 LO bnd       x332         0
 UP bnd       x332         1
 LO bnd       x333         0
 UP bnd       x333         1
 LO bnd       x334         0
 UP bnd       x334         1
 LO bnd       x335         0
 UP bnd       x335         1
 LO bnd       x336         0
 UP bnd       x336         1
 LO bnd       x337         0
 UP bnd       x337         1
 LO bnd       x338         0
 UP bnd       x338         1
 LO bnd       x339         0
 UP bnd       x339         1
 LO bnd       x340         0
 UP bnd       x340         1
 LO bnd       x341         0
 UP bnd       x341         1
 LO bnd       x342         0
 UP bnd       x342         1
 LO bnd       x343         0
 UP bnd       x343         1
 LO bnd       x344         0
 UP bnd       x344         1
 LO bnd       x345         0
 UP bnd       x345         1
 LO bnd       x346         0
 UP bnd       x346         1
 LO bnd       x347         0
 UP bnd       x347         1
 LO bnd       x348         0
 UP bnd       x348         1
 LO bnd       x349         0
 UP bnd       x349         1
 LO bnd       x350         0
 UP bnd       x350         1
 LO bnd       x351         0
 UP bnd       x351         1
 LO bnd       x352         0
 UP bnd       x352         1
 LO bnd       x353         0
 UP bnd       x353         1
 LO bnd       x354         0
 UP bnd       x354         1
 LO bnd       x355         0
 UP bnd       x355         1
 LO bnd       x356         0
 UP bnd       x356         1
 LO bnd       x357         0
 UP bnd       x357         1
 LO bnd       x358         0
 UP bnd       x358         1
 LO bnd       x359         0
 UP bnd       x359         1
 LO bnd       x360         0
 UP bnd       x360         1
 LO bnd       x361         0
 UP bnd       x361         1
 LO bnd       x362         0
 UP bnd       x362         1
 LO bnd       x363         0
 UP bnd       x363         1
 LO bnd       x364         0
 UP bnd       x364         1
 LO bnd       x365         0
 UP bnd       x365         1
 LO bnd       x366         0
 UP bnd       x366         1
 LO bnd       x367         0
 UP bnd       x367         1
 LO bnd       x368         0
 UP bnd       x368         1
 LO bnd       x369         0
 UP bnd       x369         1
 LO bnd       x370         0
 UP bnd       x370         1
 LO bnd       x371         0
 UP bnd       x371         1
 LO bnd       x372         0
 UP bnd       x372         1
 LO bnd       x373         0
 UP bnd       x373         1
 LO bnd       x374         0
 UP bnd       x374         1
 LO bnd       x375         0
 UP bnd       x375         1
 LO bnd       x376         0
 UP bnd       x376         1
 LO bnd       x377         0
 UP bnd       x377         1
 LO bnd       x378         0
 UP bnd       x378         1
 LO bnd       x379         0
 UP bnd       x379         1
 LO bnd       x380         0
 UP bnd       x380         1
 LO bnd       x381         0
 UP bnd       x381         1
 LO bnd       x382         0
 UP bnd       x382         1
 LO bnd       x383         0
 UP bnd       x383         1
 LO bnd       x384         0
 UP bnd       x384         1
 LO bnd       x385         0
 UP bnd       x385         1
 LO bnd       x386         0
 UP bnd       x386         1
 LO bnd       x387         0
 UP bnd       x387         1
 LO bnd       x388         0
 UP bnd       x388         1
 LO bnd       x389         0
 UP bnd       x389         1
 LO bnd       x390         0
 UP bnd       x390         1
 LO bnd       x391         0
 UP bnd       x391         1
 LO bnd       x392         0
 UP bnd       x392         1
 LO bnd       x393         0
 UP bnd       x393         1
 LO bnd       x394         0
 UP bnd       x394         1
 LO bnd       x395         0
 UP bnd       x395         1
 LO bnd       x396         0
 UP bnd       x396         1
 LO bnd       x397         0
 UP bnd       x397         1
 LO bnd       x398         0
 UP bnd       x398         1
 LO bnd       x399         0
 UP bnd       x399         1
ENDATA
