NAME lp_50x25
ROWS
 N obj
 G c0
 G c1
 G c2
 G c3
 G c4
 G c5
 G c6
 G c7
 G c8
 G c9
 G c10
 G c11
 G c12
 G c13
 G c14
 G c15
 G c16
 G c17
 G c18
 G c19
 G c20
 G c21
 G c22
 G c23
 G c24
COLUMNS
    x0        obj        1.8283412298675308
    x0        c3         0.8726937368310973
    x1        obj        8.9172141451018021
    x1        c6         1.6123954077389142
    x1        c14         0.68907915817345389
    x1        c15         0.14651635474846122
    x1        c16         0.88355351530667503
    x2        obj        5.8095562184671952
    x2        c3         1.7176794256802126
    x3        obj        4.2172535669437758
    x3        c19         1.7305997360867083
    x3        c21         1.4777823686425671
    x4        obj        8.1445681709519491
    x4        c5         0.13577358027646352
    x4        c9         0.55329226871126103
    x4        c16         0.93926216949236951
    x4        c17         1.1817983388411235
    x5        obj        6.4113341371375405
    x6        obj        1.8442636572099702
    x6        c6         0.62661272784638966
    x6        c20         0.66192661632888372
    x6        c22         1.9739389468538229
    x6        c24         0.40265623000358874
    x7        obj        6.1657010711420028
    x7        c4         1.441950611499083
    x7        c5         0.67754313880628558
    x7        c20         1.860042021747738
    x8        obj        1.738286170640627
    x8        c4         0.38555738675576312
    x8        c10         1.0686081645150836
    x8        c15         0.33625488058130532
    x9        obj        1.3656689342350512
    x9        c16         1.5089689969494304
    x9        c21         0.73925429521060437
    x10        obj        6.5870797781563928
    x10        c0         0.57898432227692997
    x10        c8         1.5234379611080917
    x10        c11         1.8596142347168634
    x10        c22         1.2097072138926879
    x11        obj        9.4864045288544343
    x11        c11         0.99798275124380209
    x11        c12         0.48548007523055003
    x11        c23         1.5105501715629417
    x12        obj        1.9807629561659463
    x12        c12         0.72163537652400989
    x12        c17         0.69147297488557902
    x13        obj        9.2262712266713187
    x13        c19         0.96919409136480261
    x13        c20         1.1354349129635475
    x14        obj        7.3156387883067966
    x14        c0         0.37676606247752797
    x14        c3         1.9819883372363916
    x14        c5         0.26001732312222825
    x14        c8         1.791793032255401
    x15        obj        3.1217456553512575
    x15        c8         1.1055580199631596
    x15        c9         0.14441260821522389
    x15        c13         0.42895689198563802
    x15        c23         1.8526357369001005
    x16        obj        6.9980335169987615
    x16        c14         1.1708506580004547
    x17        obj        5.7847891218046943
    x17        c3         0.11491408150928763
    x18        obj        4.4872333084406071
    x18        c23         1.9943509099492769
    x19        obj        1.2066320460354607
    x20        obj        9.43734207846971
    x20        c2         0.78987425064171901
    x20        c12         0.8271515323566917
    x20        c13         0.23783794060721497
    x20        c18         0.46058091893878883
    x21        obj        1.3874668463201161
    x21        c4         0.97284184840804167
    x21        c13         0.21343988972466477
    x22        obj        8.481200633571758
    x22        c14         1.7932570427365027
    x22        c17         1.1256109890891495
    x23        obj        3.1912713739599528
    x23        c4         0.5451939872055952
    x23        c24         0.12568506785715239
    x24        obj        5.5208847253111237
    x24        c7         0.30641201439212795
    x24        c19         1.1929723509055463
    x25        obj        3.8563036699466218
    x25        c7         0.42668061330939222
    x25        c10         1.3100523198135421
    x25        c12         1.8423124022589525
    x25        c13         1.3086584456249128
    x25        c14         0.8308638002728902
    x25        c18         1.6370175045823327
    x25        c24         0.81563652524377017
    x26        obj        2.3401387101935058
    x26        c16         1.748320223072773
    x27        obj        1.7340800663817491
    x27        c5         1.786439619508627
    x27        c9         1.2979346398161897
    x27        c14         1.5427259363744854
    x27        c18         1.512992413633518
    x27        c20         0.90449668269550088
    x28        obj        7.4199618721909504
    x28        c1         0.77293215377894309
    x29        obj        3.5747183001583887
    x29        c1         0.76062893958004552
    x30        obj        9.1583430484277653
    x30        c11         1.6559413716774203
    x31        obj        9.5771294260953876
    x32        obj        1.5728094780180979
    x32        c3         1.9042762032888922
    x33        obj        2.2430656970180345
    x33        c6         0.83023484808746073
    x34        obj        6.1290454151998883
    x34        c1         1.9575479616410691
    x34        c9         1.6162730037013573
    x34        c18         0.86352433386424554
    x35        obj        5.6917546215074486
    x35        c2         1.8003388182230216
    x35        c6         1.1437216625343414
    x35        c17         0.15123693326735979
    x35        c23         1.3177076558879408
    x36        obj        9.7518827515111024
    x36        c2         1.8910766851851055
    x37        obj        9.9670436852009576
    x37        c1         1.5213549495284735
    x37        c10         0.69790706043029893
    x38        obj        7.2020114116260672
    x38        c10         0.43367840881239594
    x38        c24         0.97106397337972361
    x39        obj        9.4809587416347352
    x39        c9         1.9117636250986934
    x39        c11         1.7135545308865614
    x40        obj        8.0496640287936216
    x40        c10         1.392318439989068
    x40        c15         1.8115517839314781
    x41        obj        8.8336943478428864
    x41        c2         0.38680015856207983
    x41        c6         0.88489309274981953
    x41        c7         1.0013155435569516
    x41        c19         0.56691083899254802
    x41        c20         1.7837496678320783
    x42        obj        5.6464802115028974
    x42        c0         1.8410608103778801
    x42        c2         0.87869599749295146
    x42        c4         1.3278060989161058
    x42        c7         0.74877185601200369
    x42        c19         0.29387501704893648
    x42        c22         1.1294928101763759
    x43        obj        8.2508559259980423
    x43        c0         0.42387380869612346
    x43        c8         0.72994912669428402
    x43        c15         1.2050495224271702
    x43        c21         1.6011111488171952
    x44        obj        4.782806177979678
    x44        c21         1.9677247899501416
    x45        obj        3.9094974899224972
    x45        c7         0.69226203886126125
    x45        c21         0.5022977643826495
    x46        obj        3.1076431134953162
    x46        c0         1.3717058689440482
    x46        c8         0.91175661916390571
    x46        c17         0.5307405158209807
    x46        c18         1.3639342431907544
    x46        c24         0.61923754513055307
    x47        obj        8.7303293616706199
    x47        c13         1.7212533841771038
    x48        obj        2.8763835853925261
    x48        c1         0.61431726973978062
    x48        c12         0.93170306690751326
    x48        c22         0.41644121923909827
    x49        obj        8.0873429923255102
    x49        c11         0.32841748727452158
    x49        c23         1.192569259479767
RHS
    rhs       c0         1.8369563491090037
    rhs       c1         2.2507125097073248
    rhs       c2         2.2987143640419512
    rhs       c3         2.6366207138183526
    rhs       c4         1.8693399731138358
    rhs       c5         1.1439094646854417
    rhs       c6         2.0391430955827703
    rhs       c7         1.2701768264526949
    rhs       c8         2.4249979036739369
    rhs       c9         2.2094704582170901
    rhs       c10         1.9610257574241556
    rhs       c11         2.6222041503196678
    rhs       c12         1.9233129813110872
    rhs       c13         1.5640586208478138
    rhs       c14         2.4107106382231152
    rhs       c15         1.3997490166753659
    rhs       c16         2.0320419619284991
    rhs       c17         1.4723439007616772
    rhs       c18         2.3352197656838558
    rhs       c19         1.9014208137594169
    rhs       c20         2.5382599606270997
    rhs       c21         2.5152681468012634
    rhs       c22         1.8918320760647942
    rhs       c23         3.1471254935120108
    rhs       c24         1.1737117366459153
BOUNDS
 LO bnd       x0         0
 UP bnd       x0         1
 LO bnd       x1         0
 UP bnd       x1         1
 LO bnd       x2         0
 UP bnd       x2         1
 LO bnd       x3         0
 UP bnd       x3         1
 LO bnd       x4         0
 UP bnd       x4         1
 LO bnd       x5         0
 UP bnd       x5         1
 LO bnd       x6         0
 UP bnd       x6         1
 LO bnd       x7         0
 UP bnd       x7         1
 LO bnd       x8         0
 UP bnd       x8         1
 LO bnd       x9         0
 UP bnd       x9         1
 LO bnd       x10         0
 UP bnd       x10         1
 LO bnd       x11         0
 UP bnd       x11         1
 LO bnd       x12         0
 UP bnd       x12         1
 LO bnd       x13         0
 UP bnd       x13         1
 LO bnd       x14         0
 UP bnd       x14         1
 LO bnd       x15         0
 UP bnd       x15         1
 LO bnd       x16         0
 UP bnd       x16         1
 LO bnd       x17         0
 UP bnd       x17         1
 LO bnd       x18         0
 UP bnd       x18         1
 LO bnd       x19         0
 UP bnd       x19         1
 LO bnd       x20         0
 UP bnd       x20         1
 LO bnd       x21         0
 UP bnd       x21         1
 LO bnd       x22         0
 UP bnd       x22         1
 LO bnd       x23         0
 UP bnd       x23         1
 LO bnd       x24         0
 UP bnd       x24         1
 LO bnd       x25         0
 UP bnd       x25         1
 LO bnd       x26         0
 UP bnd       x26         1
 LO bnd       x27         0
 UP bnd       x27         1
 LO bnd       x28         0
 UP bnd       x28         1
 LO bnd       x29         0
 UP bnd       x29         1
 LO bnd       x30         0
 UP bnd       x30         1
 LO bnd       x31         0
 UP bnd       x31         1
 LO bnd       x32         0
 UP bnd       x32         1
 LO bnd       x33         0
 UP bnd       x33         1
 LO bnd       x34         0
 UP bnd       x34         1
 LO bnd       x35         0
 UP bnd       x35         1
 LO bnd       x36         0
 UP bnd       x36         1
 LO bnd       x37         0
 UP bnd       x37         1
 LO bnd       x38         0
 UP bnd       x38         1
 LO bnd       x39         0
 UP bnd       x39         1
 LO bnd       x40         0
 UP bnd       x40         1
 LO bnd       x41         0
 UP bnd       x41         1
 LO bnd       x42         0
 UP bnd       x42         1
 LO bnd       x43         0
 UP bnd       x43         1
 LO bnd       x44         0
 UP bnd       x44         1
 LO bnd       x45         0
 UP bnd       x45         1
 LO bnd       x46         0
 UP bnd       x46         1
 LO bnd       x47         0
 UP bnd       x47         1
 LO bnd       x48         0
 UP bnd       x48         1
 LO bnd       x49         0
 UP bnd       x49         1
ENDATA
