NAME milp_60x30
OBJSENSE
    MAX
ROWS
 N obj
 L c0
 L c1
 L c2
 L c3
 L c4
 L c5
 L c6
 L c7
 L c8
 L c9
 L c10
 L c11
 L c12
 L c13
 L c14
 L c15
 L c16
 L c17
 L c18
 L c19
 L c20
 L c21
 L c22
 L c23
 L c24
 L c25
 L c26
 L c27
 L c28
 L c29
COLUMNS
    MARKER                 'MARKER'                 'INTORG'
    x0        obj        3.2119128152407357
    x0        c6         2.5409866554587968
    MARKER                 'MARKER'                 'INTEND'
    MARKER                 'MARKER'                 'INTORG'
    x1        obj        2.759547291923746
    MARKER                 'MARKER'                 'INTEND'
    MARKER                 'MARKER'                 'INTORG'
    x2        obj        2.0454119299133335
    x2        c14         0.57353293477722012
    x2        c24         1.3488636361646049
    x2        c26         0.56610740299262174
    x2        c27         2.5793622690013414
    x2        c28         0.93114095842937572
    MARKER                 'MARKER'                 'INTEND'
    MARKER                 'MARKER'                 'INTORG'
    x3        obj        7.9830726031649935
    x3        c5         1.849975931645736
    x3        c16         2.0919442316591574
    x3        c28         1.9153169947272386
    x3        c29         2.4471214458113799
    MARKER                 'MARKER'                 'INTEND'
    MARKER                 'MARKER'                 'INTORG'
    x4        obj        6.5839281302900261
    x4        c1         1.7555395232015243
    x4        c9         1.7584914088732393
    x4        c14         1.2657392537266166
    x4        c15         1.1598355587439764
    x4        c17         2.3747490573856269
    x4        c19         0.60711227065246853
    x4        c22         1.8783566750043192
    x4        c25         2.1208991503003345
    MARKER                 'MARKER'                 'INTEND'
    MARKER                 'MARKER'                 'INTORG'
    x5        obj        1.8573072588041555
    x5        c1         1.8289060672481692
    x5        c6         2.6212305965315688
    x5        c18         1.0715661667236573
    x5        c22         1.80163837373263
    x5        c23         1.3655977192270605
    MARKER                 'MARKER'                 'INTEND'
    MARKER                 'MARKER'                 'INTORG'
    x6        obj        5.1392484083845345
    x6        c0         2.8676182020659136
    x6        c1         1.2340079428402886
    x6        c16         1.1914069259294509
    x6        c29         1.3765414045019646
    MARKER                 'MARKER'                 'INTEND'
    MARKER                 'MARKER'                 'INTORG'
    x7        obj        3.1356775312932945
    x7        c3         0.60417504424606672
    x7        c12         0.6614382267206721
    x7        c22         0.81809655683415006
    x7        c27         1.7465339566780989
    MARKER                 'MARKER'                 'INTEND'
    MARKER                 'MARKER'                 'INTORG'
    x8        obj        1.5254096574215743
    x8        c3         1.3791324946627084
    x8        c20         0.86244776470946982
    x8        c21         0.74238756095175762
    MARKER                 'MARKER'                 'INTEND'
    MARKER                 'MARKER'                 'INTORG'
    x9        obj        1.5894036767243933
    x9        c8         0.85280060339317076
    x9        c18         2.3388793019145364
    MARKER                 'MARKER'                 'INTEND'
    MARKER                 'MARKER'                 'INTORG'
    x10        obj        7.7545155861189965
    x10        c5         2.18435688569381
    x10        c7         1.7141839275032273
    MARKER                 'MARKER'                 'INTEND'
    MARKER                 'MARKER'                 'INTORG'
    x11        obj        5.5321190890168106
    x11        c10         1.166171477625062
    x11        c13         0.92877307914970075
    MARKER                 'MARKER'                 'INTEND'
    MARKER                 'MARKER'                 'INTORG'
    x12        obj        4.8664458411651719
    x12        c14         0.57817147622942033
    x12        c15         1.3915044679712931
    MARKER                 'MARKER'                 'INTEND'
    MARKER                 'MARKER'                 'INTORG'
    x13        obj        4.6156943537537627
    x13        c8         2.7954392569630246
    x13        c18         1.6206681062578492
    MARKER                 'MARKER'                 'INTEND'
    MARKER                 'MARKER'                 'INTORG'
    x14        obj        3.592524726890499
    x14        c8         1.4991999777584573
    x14        c9         2.0999489792019963
    x14        c11         1.4228810376785022
    x14        c24         2.219422727718964
    MARKER                 'MARKER'                 'INTEND'
    MARKER                 'MARKER'                 'INTORG'
    x15        obj        5.9715201431657947
    x15        c4         2.3926688996661367
    x15        c18         1.6846765111609323
    x15        c23         0.60126218410707322
    MARKER                 'MARKER'                 'INTEND'
    MARKER                 'MARKER'                 'INTORG'
    x16        obj        7.9410234959367436
    x16        c19         0.87936785739553169
    x16        c26         1.7305540178191519
    x16        c29         0.83510980035811633
    MARKER                 'MARKER'                 'INTEND'
    MARKER                 'MARKER'                 'INTORG'
    x17        obj        3.3865572100276404
    x17        c24         2.8219928524096667
    x17        c25         2.4756182959885349
    MARKER                 'MARKER'                 'INTEND'
    MARKER                 'MARKER'                 'INTORG'
    x18        obj        5.5385395793153114
    x18        c17         0.64412401494315419
    x18        c21         1.0159063174010461
    MARKER                 'MARKER'                 'INTEND'
    MARKER                 'MARKER'                 'INTORG'
    x19        obj        3.940925067961865
    x19        c3         1.8243981305133881
    x19        c15         2.8550206558246938
    x19        c21         2.0258358242961001
    x19        c24         1.1997010248246716
    MARKER                 'MARKER'                 'INTEND'
    MARKER                 'MARKER'                 'INTORG'
    x20        obj        6.8427501328017764
    x20        c2         1.9157605686092967
    x20        c7         1.1808426874206683
    x20        c10         2.8137094497472872
    x20        c12         2.38134854275006
    x20        c22         0.61445283942198681
    x20        c27         0.74864034289054981
    MARKER                 'MARKER'                 'INTEND'
    MARKER                 'MARKER'                 'INTORG'
    x21        obj        8.5762477186232697
    x21        c2         2.725635007364573
    x21        c3         1.3450132592630968
    x21        c11         2.6132425628062883
    x21        c19         2.0806214671732493
    MARKER                 'MARKER'                 'INTEND'
    MARKER                 'MARKER'                 'INTORG'
    x22        obj        3.3326632026719976
    MARKER                 'MARKER'                 'INTEND'
    MARKER                 'MARKER'                 'INTORG'
    x23        obj        6.3171776098425383
    x23        c1         2.0312108971548657
    x23        c2         2.7397650958862183
    x23        c17         1.5258454813655293
    x23        c18         1.972040014956667
    MARKER                 'MARKER'                 'INTEND'
    MARKER                 'MARKER'                 'INTORG'
    x24        obj        7.1532789301631938
    MARKER                 'MARKER'                 'INTEND'
    MARKER                 'MARKER'                 'INTORG'
    x25        obj        8.3705249968222599
    x25        c8         2.5828675429281978
    x25        c10         1.6321133117155444
    MARKER                 'MARKER'                 'INTEND'
    MARKER                 'MARKER'                 'INTORG'
    x26        obj        9.908659638210791
    x26        c10         1.0236440767340431
    x26        c11         0.67927884075619072
    x26        c21         1.0333861102399835
    x26        c26         2.1763700463387252
    MARKER                 'MARKER'                 'INTEND'
    MARKER                 'MARKER'                 'INTORG'
    x27        obj        6.6724511987510233
    x27        c4         0.52323413957772913
    x27        c6         1.7641614635968286
    x27        c12         2.8220897227659067
    x27        c15         0.88172445147820422
    x27        c16         0.63490971832143817
    x27        c19         2.4523109305905093
    x27        c27         0.5134666908519645
    x27        c29         2.6860814262533399
    MARKER                 'MARKER'                 'INTEND'
    MARKER                 'MARKER'                 'INTORG'
    x28        obj        2.2398903951144993
    x28        c6         2.030584538417084
    x28        c21         2.0229928920977898
    x28        c29         1.5680958959700342
    MARKER                 'MARKER'                 'INTEND'
    MARKER                 'MARKER'                 'INTORG'
    x29        obj        8.8040418880739821
    x29        c1         1.4636638350629196
    x29        c6         2.1029112942221087
    x29        c10         0.93878438348984306
    x29        c16         2.2809788489551517
    x29        c20         2.7134914856066281
    MARKER                 'MARKER'                 'INTEND'
    x30        obj        5.2084376424140402
    x30        c20         1.8978372833750039
    x30        c24         1.8316255637649221
    x31        obj        6.1977949669398216
    x31        c2         0.66090019024189517
    x31        c14         0.67770774474709428
    x31        c28         2.4489628833553807
    x32        obj        8.2991610231874802
    x32        c28         2.1587236481862395
    x33        obj        8.1395259474505277
    x33        c5         2.3058556608213556
    x33        c17         2.7864885899618645
    x33        c23         1.7918758255730334
    x34        obj        1.5396809520480459
    x34        c11         2.657532241471273
    x35        obj        7.8814322429712522
    x35        c6         2.6403875078893324
    x35        c7         2.3207358130043216
    x35        c9         1.1780662262662722
    x35        c27         2.0042758608340279
    x36        obj        4.1252390064340076
    x36        c3         2.4320775537060815
    x36        c10         0.57995022955793352
    x36        c14         2.488928786055927
    x37        obj        3.5220044974227407
    x37        c2         2.5657390206974018
    x37        c5         2.2835525233894307
    x37        c16         1.4288893748794271
    x38        obj        9.6614430053687599
    x38        c0         2.0620854110279314
    x38        c13         1.4902970515895779
    x38        c15         1.7362443357225263
    x38        c17         2.2665971487049354
    x38        c20         2.055425100433939
    x38        c22         2.3788718021186659
    x39        obj        3.2826061592343723
    x39        c20         1.4457791648598119
    x40        obj        8.8582034019232427
    x40        c12         2.0695249382354652
    x40        c13         0.82975601992584147
    x40        c15         1.2380847015867895
    x41        obj        5.52345871328634
    x41        c0         2.2461499234617897
    x41        c3         1.1262844512011627
    x41        c13         1.6141259571042323
    x41        c22         1.1185981975583035
    x42        obj        1.7090952390288288
    x42        c0         2.885575498396566
    x42        c4         2.0739480755351667
    x42        c7         0.88747558141023652
    x42        c11         1.3471281395470254
    x42        c12         2.2392937059205487
    x42        c15         2.6977943338573351
    x42        c18         1.0990566744323798
    x42        c28         0.75900120674090332
    x43        obj        1.8301753322408367
    x43        c1         1.3540900278573402
    x43        c3         1.12292109564105
    x43        c4         2.669070191772942
    x43        c6         2.8095209543424429
    x43        c14         1.9119563332352358
    x43        c19         2.2545499841788859
    x44        obj        4.6879397957994069
    x44        c1         0.69160886650837483
    x44        c4         0.75714992524795788
    x44        c20         1.8389682780527659
    x44        c25         1.2700659678169899
    x45        obj        7.8711707223207208
    x45        c9         2.0620925529566798
    x45        c23         0.68279099267870857
    x45        c26         2.0261838985524467
    x45        c28         2.8327058650684886
    x46        obj        5.3068329678926442
    x46        c4         2.612349891433738
    x46        c12         2.7185876474272144
    x46        c22         1.9888677701056954
    x46        c27         2.932435023698043
    x47        obj        7.192800360956153
    x47        c5         1.2064872961433517
    x47        c10         1.3626767128987225
    x47        c19         0.5871140811691582
    x47        c25         1.7584232266682103
    x48        obj        1.6890314589714193
    x48        c8         1.1322235241998877
    x49        obj        1.8680683401845004
    x49        c7         1.0955002713318231
    x49        c16         2.3391118878895463
    x49        c28         2.3106580976474413
    x50        obj        2.0627087996753382
    x50        c7         1.4847864419284087
    x50        c9         0.83396211249045882
    x50        c19         0.65897830205755437
    x50        c24         0.89064874139798844
    x50        c26         2.3166609822747168
    x51        obj        3.9247951055804977
    x51        c11         2.0057873559926227
    x51        c17         1.1206250569400729
    x52        obj        8.1625547979645852
    x52        c0         0.54252534667478902
    x52        c2         2.2582093559261081
    x52        c5         1.8907240290732124
    x52        c16         1.2564131961115861
    x52        c25         1.9531808255622627
    x52        c26         2.2839198548021264
    x53        obj        8.7321284070258844
    x53        c8         2.7105309426051818
    x53        c21         1.2423062530878812
    x53        c29         0.92961239820229458
    x54        obj        5.0683297106948704
    x54        c0         1.5156754766417395
    x54        c12         2.1114276048598506
    x54        c26         1.0081634815905338
    x54        c29         2.3787455354635707
    x55        obj        2.4856729239298092
    x55        c7         0.50525970462782299
    x55        c17         1.8254457463758629
    x55        c23         2.2591483386480706
    x56        obj        2.0853186708540363
    x56        c4         2.9000327794116711
    x56        c5         0.67733767198809258
    x56        c9         2.5022447462687776
    x56        c13         2.9039632076058695
    x56        c23         2.1380647188619966
    x57        obj        2.5568265025513508
    x57        c2         1.9463078045870379
    x57        c13         2.5470763126109319
    x57        c14         0.70595518256723211
    x57        c24         1.1652274570515098
    x57        c25         1.8015219789940531
    x58        obj        1.315244375561643
    x59        obj        7.7435703379080385
    x59        c25         0.50699831323338529
RHS
    rhs       c0         6.0598149291343644
    rhs       c1         5.1795135799367413
    rhs       c2         7.4061585216562653
    rhs       c3         4.9170010146167771
    rhs       c4         6.9642269513226704
    rhs       c5         6.199144999377495
    rhs       c6         8.2548915052290806
    rhs       c7         4.5943922136132542
    rhs       c8         5.7865309239239604
    rhs       c9         5.2174030130287123
    rhs       c10         4.7585248208842179
    rhs       c11         5.3629250891259508
    rhs       c12         7.5018551943398588
    rhs       c13         5.1569958139930767
    rhs       c14         4.1009958556693729
    rhs       c15         5.9801042525924091
    rhs       c16         5.611827091872879
    rhs       c17         6.2719375478385233
    rhs       c18         4.8934433877230106
    rhs       c19         4.7600274466086789
    rhs       c20         5.406974538518809
    rhs       c21         4.0414074790372787
    rhs       c22         5.2994411073878753
    rhs       c23         4.4193698895479718
    rhs       c24         5.7387410016661633
    rhs       c25         5.9433538792818856
    rhs       c26         6.0539798421851616
    rhs       c27         5.2623570719770125
    rhs       c28         6.6782548270775344
    rhs       c29         6.1106539532803499
BOUNDS
 BV bnd       x0
 BV bnd       x1
 BV bnd       x2
 BV bnd       x3
 BV bnd       x4
 BV bnd       x5
 BV bnd       x6
 BV bnd       x7
 BV bnd       x8
 BV bnd       x9
 BV bnd       x10
 BV bnd       x11
 BV bnd       x12
 BV bnd       x13
 BV bnd       x14
 BV bnd       x15
 BV bnd       x16
 BV bnd       x17
 BV bnd       x18
 BV bnd       x19
 BV bnd       x20
 BV bnd       x21
 BV bnd       x22
 BV bnd       x23
 BV bnd       x24
 BV bnd       x25
 BV bnd       x26
 BV bnd       x27
 BV bnd       x28
 BV bnd       x29
 LO bnd       x30         0
 UP bnd       x30         1
 LO bnd       x31         0
 UP bnd       x31         1
 LO bnd       x32         0
 UP bnd       x32         1
 LO bnd       x33         0
 UP bnd       x33         1
 LO bnd       x34         0
 UP bnd       x34         1
 LO bnd       x35         0
 UP bnd       x35         1
 LO bnd       x36         0
 UP bnd       x36         1
 LO bnd       x37         0
 UP bnd       x37         1
 LO bnd       x38         0
 UP bnd       x38         1
 LO bnd       x39         0
 UP bnd       x39         1
 LO bnd       x40         0
 UP bnd       x40         1
 LO bnd       x41         0
 UP bnd       x41         1
 LO bnd       x42         0
 UP bnd       x42         1
 LO bnd       x43         0
 UP bnd       x43         1
 LO bnd       x44         0
 UP bnd       x44         1
 LO bnd       x45         0
 UP bnd       x45         1
 LO bnd       x46         0
 UP bnd       x46         1
 LO bnd       x47         0
 UP bnd       x47         1
 LO bnd       x48         0
 UP bnd       x48         1
 LO bnd       x49         0
 UP bnd       x49         1
 LO bnd       x50         0
 UP bnd       x50         1
 LO bnd       x51         0
 UP bnd       x51         1
 LO bnd       x52         0
 UP bnd       x52         1
 LO bnd       x53         0
 UP bnd       x53         1
 LO bnd       x54         0
 UP bnd       x54         1
 LO bnd       x55         0
 UP bnd       x55         1
 LO bnd       x56         0
 UP bnd       x56         1
 LO bnd       x57         0
 UP bnd       x57         1
 LO bnd       x58         0
 UP bnd       x58         1
 LO bnd       x59         0
 UP bnd       x59         1
ENDATA
