NAME milp_80x40
OBJSENSE
    MAX
ROWS
 N obj
 L c0
 L c1
 L c2
 L c3
 L c4
 L c5
 L c6
 L c7
 L c8
 L c9
 L c10
 L c11
 L c12
 L c13
 L c14
 L c15
 L c16
 L c17
 L c18
 L c19
 L c20
 L c21
 L c22
 L c23
 L c24
 L c25
 L c26
 L c27
 L c28
 L c29
 L c30
 L c31
 L c32
 L c33
 L c34
 L c35
 L c36
 L c37
 L c38
 L c39
COLUMNS
    MARKER                 'MARKER'                 'INTORG'
    x0        obj        8.6935289948054226
    x0        c2         1.7722914908843381
    x0        c24         1.2274983927022349
    x0        c39         0.55704085637137735
    MARKER                 'MARKER'                 'INTEND'
    MARKER                 'MARKER'                 'INTORG'
    x1        obj        9.9011369528045137
    x1        c2         1.7126941859644518
    x1        c14         2.4406920163781307
    x1        c15         2.0387908443397986
    x1        c30         1.9011393920275264
    x1        c33         2.7048375286554172
    MARKER                 'MARKER'                 'INTEND'
    MARKER                 'MARKER'                 'INTORG'
    x2        obj        5.5288680700808648
    x2        c11         2.3941249276223724
    x2        c21         1.7994587553774108
    x2        c24         2.083796333736804
    x2        c27         1.7270847238059046
    x2        c33         0.57966284257813983
    x2        c38         2.7955210232356933
    MARKER                 'MARKER'                 'INTEND'
    MARKER                 'MARKER'                 'INTORG'
    x3        obj        1.2488641413511656
    x3        c20         0.85790417799527741
    x3        c23         2.3218161876382748
    x3        c26         2.3556876846124215
    x3        c28         2.3935513780569568
    x3        c33         0.5387923904004206
    x3        c39         1.9860103311088415
    MARKER                 'MARKER'                 'INTEND'
    MARKER                 'MARKER'                 'INTORG'
    x4        obj        8.6243582646210264
    x4        c12         0.83135436133295615
    x4        c14         1.8134172625222307
    x4        c16         0.94053366122587945
    x4        c25         1.3161048895709291
    MARKER                 'MARKER'                 'INTEND'
    MARKER                 'MARKER'                 'INTORG'
    x5        obj        2.4825442251209062
    x5        c1         0.67818632153815905
    x5        c23         2.5280591052732664
    x5        c29         2.2005948992183693
    x5        c31         0.50573301872451415
    x5        c35         2.9871669495097497
    x5        c37         0.82358606779163246
    x5        c39         0.6580931319021639
    MARKER                 'MARKER'                 'INTEND'
    MARKER                 'MARKER'                 'INTORG'
    x6        obj        3.6870109614441624
    x6        c1         1.1658848306123033
    x6        c9         2.2776701734737506
    x6        c19         2.013781267397027
    x6        c23         2.8281719204122271
    x6        c37         0.61499889802368068
    MARKER                 'MARKER'                 'INTEND'
    MARKER                 'MARKER'                 'INTORG'
    x7        obj        7.5582898993046221
    x7        c8         2.2564600797260375
    x7        c13         2.9739229069435096
    x7        c14         2.7918326360128418
    x7        c17         2.1350461755010612
    x7        c18         1.7972831230271136
    x7        c31         1.0639122218775181
    MARKER                 'MARKER'                 'INTEND'
    MARKER                 'MARKER'                 'INTORG'
    x8        obj        1.4321274590277686
    x8        c0         1.569235738192843
    x8        c6         1.8280732875252956
    x8        c23         0.79592132114331182
    x8        c26         1.4207655426685402
    x8        c27         2.15825907062003
    x8        c28         1.5866290067847344
    x8        c30         2.5050403700643713
    x8        c37         0.64745315634094924
    MARKER                 'MARKER'                 'INTEND'
    MARKER                 'MARKER'                 'INTORG'
    x9        obj        8.9598100126194034
    x9        c17         0.75064474725414398
    MARKER                 'MARKER'                 'INTEND'
    MARKER                 'MARKER'                 'INTORG'
    x10        obj        9.0920274767384246
    x10        c10         1.6530961716286916
    x10        c13         1.3655607859174306
    x10        c15         0.86478379697407171
    x10        c21         1.3697907686733408
    x10        c24         2.57423606770534
    x10        c29         1.9505548113311273
    x10        c34         0.67136345945860831
    MARKER                 'MARKER'                 'INTEND'
    MARKER                 'MARKER'                 'INTORG'
    x11        obj        1.5335663326032021
    x11        c6         1.3108338019948031
    x11        c9         2.2732845298879019
    x11        c15         2.8636393886642564
    x11        c31         0.82741367675989652
    MARKER                 'MARKER'                 'INTEND'
    MARKER                 'MARKER'                 'INTORG'
    x12        obj        1.8576252645154714
    x12        c3         1.9940714521047107
    x12        c11         1.07908844091564
    x12        c12         0.58635528717347984
    x12        c21         2.4099440009393804
    x12        c24         1.0035283755240274
    x12        c26         1.3590831418317999
    x12        c30         1.1069384673013074
    x12        c32         0.5074786598092641
    MARKER                 'MARKER'                 'INTEND'
    MARKER                 'MARKER'                 'INTORG'
    x13        obj        4.7091081404903372
    x13        c8         2.2979584444172114
    x13        c12         1.3362764675625587
    x13        c15         2.1998605475006903
    x13        c16         0.62243105476093508
    x13        c32         0.9167532318576922
    x13        c36         0.84018133505758197
    x13        c38         2.7026416569094254
    MARKER                 'MARKER'                 'INTEND'
    MARKER                 'MARKER'                 'INTORG'
    x14        obj        2.8119506401976397
    x14        c7         2.6353383840926687
    x14        c11         2.5664340114548003
    x14        c12         2.7700270437404071
    MARKER                 'MARKER'                 'INTEND'
    MARKER                 'MARKER'                 'INTORG'
    x15        obj        6.8865868005986082
    x15        c25         2.3611967557993889
    x15        c35         1.135649580193443
    MARKER                 'MARKER'                 'INTEND'
    MARKER                 'MARKER'                 'INTORG'
    x16        obj        5.3672775566406017
    x16        c0         1.5415257487511898
    x16        c16         0.88388311092042493
    x16        c18         1.4874545623623852
    x16        c33         2.836820613792058
    MARKER                 'MARKER'                 'INTEND'
    MARKER                 'MARKER'                 'INTORG'
    x17        obj        2.0469528944062438
    x17        c8         0.79424732057195513
    MARKER                 'MARKER'                 'INTEND'
    MARKER                 'MARKER'                 'INTORG'
    x18        obj        5.6112742386419203
    x18        c2         2.616657353532911
    x18        c9         2.4012848710591603
    x18        c10         2.6712481910719075
    x18        c14         1.0800764800715457
    x18        c18         0.89997530549711946
    x18        c19         1.4819776540667569
    x18        c20         1.413041160085317
    x18        c28         2.5908462611991769
    MARKER                 'MARKER'                 'INTEND'
    MARKER                 'MARKER'                 'INTORG'
    x19        obj        1.9226240843433917
    x19        c2         2.4780909056274032
    x19        c16         2.1742790695136711
    x19        c23         1.3096435792396706
    x19        c25         1.1355206707049668
    x19        c34         1.6524399608071811
    MARKER                 'MARKER'                 'INTEND'
    MARKER                 'MARKER'                 'INTORG'
    x20        obj        2.3744501065966461
    x20        c3         2.815820152639803
    x20        c25         1.1947824977519272
    x20        c36         1.6272952435582997
    MARKER                 'MARKER'                 'INTEND'
    MARKER                 'MARKER'                 'INTORG'
    x21        obj        5.2954299312819959
    x21        c1         1.2076165134164594
    x21        c21         0.64823289693715469
    x21        c22         0.97402962395154458
    x21        c32         2.3339036534662521
    MARKER                 'MARKER'                 'INTEND'
    MARKER                 'MARKER'                 'INTORG'
    x22        obj        2.7587506538612971
    x22        c13         1.329952366317249
    x22        c22         1.5170018257730995
    MARKER                 'MARKER'                 'INTEND'
    MARKER                 'MARKER'                 'INTORG'
    x23        obj        2.5521194171591199
    x23        c7         0.74387735378002673
    x23        c20         0.90504729326487277
    x23        c22         0.50243121091758669
    x23        c34         2.2997989565753603
    x23        c39         1.7846756356549629
    MARKER                 'MARKER'                 'INTEND'
    MARKER                 'MARKER'                 'INTORG'
    x24        obj        2.3296868043607879
    x24        c33         0.86284938693596003
    MARKER                 'MARKER'                 'INTEND'
    MARKER                 'MARKER'                 'INTORG'
    x25        obj        1.2440150880409573
    x25        c3         2.5917473878020045
    x25        c13         2.8619421800510461
    x25        c27         2.6461625283709118
    x25        c28         2.367105909277897
    x25        c29         2.4499957562640735
    MARKER                 'MARKER'                 'INTEND'
    MARKER                 'MARKER'                 'INTORG'
    x26        obj        2.5563988718852868
    x26        c7         2.6037196375980356
    x26        c32         1.9387152350835817
    MARKER                 'MARKER'                 'INTEND'
    MARKER                 'MARKER'                 'INTORG'
    x27        obj        8.5798348019199366
    x27        c5         2.001123502939202
    x27        c15         0.64474853711389879
    x27        c25         2.7285977216461768
    x27        c36         1.7801369378438574
    x27        c37         1.8224336737252496
    x27        c38         0.52302613679246646
    MARKER                 'MARKER'                 'INTEND'
    MARKER                 'MARKER'                 'INTORG'
    x28        obj        7.8213358708391443
    x28        c35         1.7446299529515226
    x28        c37         0.50236107356990534
    MARKER                 'MARKER'                 'INTEND'
    MARKER                 'MARKER'                 'INTORG'
    x29        obj        7.2456193649542548
    x29        c8         2.3717077060127387
    x29        c11         0.85358728719641763
    x29        c23         1.2337922246845947
    x29        c29         1.4646149375830737
    x29        c34         1.4262378832811273
    x29        c37         0.89746930406191261
    MARKER                 'MARKER'                 'INTEND'
    MARKER                 'MARKER'                 'INTORG'
    x30        obj        8.9285302767808208
    x30        c0         0.75873594164706026
    x30        c3         2.2644218806996159
    x30        c32         2.3671592513781698
    MARKER                 'MARKER'                 'INTEND'
    MARKER                 'MARKER'                 'INTORG'
    x31        obj        1.3237078212233373
    x31        c0         0.54006979202947769
    x31        c4         1.6640249049948155
    x31        c5         2.9425941443821215
    x31        c13         1.7565739220916403
    x31        c16         0.50095533293838934
    x31        c33         2.7018987981018516
    MARKER                 'MARKER'                 'INTEND'
    MARKER                 'MARKER'                 'INTORG'
    x32        obj        3.7061918994759786
    x32        c3         2.115527629218608
    x32        c20         2.723858358291416
    x32        c23         1.9602744760746103
    x32        c25         2.3168971554087823
    x32        c31         0.72032442592402612
    x32        c34         1.3503100396384764
    x32        c35         0.52459938182914589
    x32        c39         1.7877246462268233
    MARKER                 'MARKER'                 'INTEND'
    MARKER                 'MARKER'                 'INTORG'
    x33        obj        7.0942065047070146
    x33        c1         2.1624886058015509
    x33        c3         2.5189541713963313
    x33        c15         2.3529942788257667
    x33        c20         2.3077931269397034
    x33        c22         2.5869988069381948
    MARKER                 'MARKER'                 'INTEND'
    MARKER                 'MARKER'                 'INTORG'
    x34        obj        3.2404324552549308
    x34        c2         0.74298188192902304
    x34        c4         0.94654639551093334
    x34        c8         0.91169970578546455
    x34        c18         0.65917012417556053
    x34        c19         1.0222630400923431
    x34        c34         1.0429629928816482
    x34        c36         1.9138548301012022
    MARKER                 'MARKER'                 'INTEND'
    MARKER                 'MARKER'                 'INTORG'
    x35        obj        4.7601916887701874
    x35        c4         2.316644016151864
    x35        c10         1.2556979161157573
    x35        c11         1.3400790500614008
    x35        c12         2.4502940173016734
    x35        c39         2.0458941607474723
    MARKER                 'MARKER'                 'INTEND'
    MARKER                 'MARKER'                 'INTORG'
    x36        obj        2.0496912038223511
    x36        c13         1.8128773421633491
    x36        c23         1.7805923748770414
    x36        c26         1.3591168452587803
    x36        c38         1.8114262263543965
    MARKER                 'MARKER'                 'INTEND'
    MARKER                 'MARKER'                 'INTORG'
    x37        obj        6.5870144879323833
    x37        c8         2.5100130615611338
    x37        c10         2.5292595169991108
    x37        c15         1.3342979571226119
    x37        c21         1.0793824600405986
    x37        c28         2.8304216655718468
    x37        c38         2.6662346109249699
    x37        c39         2.1147833549382922
    MARKER                 'MARKER'                 'INTEND'
    MARKER                 'MARKER'                 'INTORG'
    x38        obj        9.2747102346019688
    x38        c4         0.95315925654756306
    x38        c22         2.7929936599076446
    x38        c30         1.7964510129951297
    x38        c36         1.8798928494636145
    MARKER                 'MARKER'                 'INTEND'
    MARKER                 'MARKER'                 'INTORG'
    x39        obj        8.6985893238178953
    x39        c0         2.9146880462829658
    x39        c3         2.5706192515360127
    x39        c23         0.96139066983567822
    MARKER                 'MARKER'                 'INTEND'
    x40        obj        8.854206751892562
    x40        c5         0.50438157653697457
    x40        c7         2.6352691879254246
    x40        c17         2.5303611614001356
    x40        c19         2.3992857960563923
    x40        c36         1.7756875189380443
    x41        obj        1.0596308342734901
    x41        c2         2.2986349712237617
    x41        c12         0.6504947898180562
    x41        c39         1.749055877038669
    x42        obj        9.8348228342561406
    x42        c0         2.1176177752936707
    x42        c8         2.9788421946963406
    x42        c13         0.56990719848994964
    x42        c21         2.6089491634050201
    x42        c24         2.9095981882697957
    x42        c27         1.684954359584508
    x43        obj        1.5900698832228759
    x43        c17         2.1603646841430453
    x43        c19         2.5467841860252647
    x43        c23         1.5599182483847653
    x43        c28         2.230697376555371
    x43        c29         0.72090529417544102
    x43        c30         0.60546233671276217
    x43        c35         0.78513080743048236
    x43        c37         2.0854694629080539
    x44        obj        1.8802272770342303
    x44        c8         0.73822627741339586
    x44        c19         1.6602397403838947
    x44        c26         1.5329560173876788
    x45        obj        9.3526239706143777
    x45        c1         1.533138093467201
    x45        c30         1.5242945228541511
    x45        c35         1.2758873350378872
    x46        obj        3.862146982882436
    x46        c2         0.56546678556513308
    x46        c13         2.0747355103093792
    x46        c16         0.91059874602313584
    x46        c32         2.2843578392955388
    x47        obj        1.8838856132192534
    x47        c9         1.6861611639637026
    x47        c20         1.2914634292134068
    x47        c22         2.3740650740713107
    x47        c36         2.9138008332850993
    x48        obj        2.4512760247185503
    x48        c2         2.9860927219581921
    x48        c11         0.96671449237887741
    x48        c30         1.1254411628011567
    x49        obj        6.4100142228202532
    x49        c6         1.6967994372676838
    x49        c9         2.9402925976065188
    x49        c25         1.6401772541412172
    x49        c26         0.84311780965625538
    x49        c27         2.8708623096342132
    x49        c39         1.0477917934472685
    x50        obj        5.3781486141563155
    x50        c5         2.9516842124657732
    x50        c20         1.0450973818103009
    x50        c21         1.614947241292501
    x50        c38         2.6716319243185569
    x51        obj        1.9702501784282567
    x51        c5         2.3123127540274293
    x51        c6         2.5299959494760684
    x51        c7         1.2805271538791994
    x51        c10         2.4653723710791091
    x51        c12         1.2507797419278375
    x51        c26         1.2152424351975246
    x51        c27         2.0163367465546971
    x51        c32         1.1107564054302155
    x51        c35         2.6792670938920415
    x52        obj        2.5413248130702351
    x52        c11         1.0732137345768638
    x52        c22         2.1288887413768656
    x52        c30         2.381807512935314
    x53        obj        5.319009133976758
    x53        c8         0.77406001411242886
    x53        c9         2.7938606753983777
    x53        c16         2.7921305799702401
    x53        c18         1.8572091885574846
    x53        c21         1.7409061110083548
    x54        obj        1.3175926653965178
    x54        c3         2.5377720239126909
    x54        c14         2.3730324224947754
    x54        c24         1.7713064913450771
    x54        c38         0.76711706527942947
    x55        obj        5.6661326704437531
    x55        c6         2.4064117036212873
    x55        c9         1.1022676843060502
    x55        c24         1.7609919911778786
    x55        c37         2.0283692573710406
    x55        c38         0.62188016927977974
    x56        obj        1.3454893881784837
    x56        c4         1.2929862372173369
    x56        c5         0.97895342542990771
    x56        c9         0.68001002323950521
    x56        c14         2.4434541221303192
    x56        c16         2.4730430319848526
    x56        c18         2.7635242656655445
    x56        c26         0.89609411830551666
    x56        c28         2.280370188433241
    x56        c30         2.0970540672307596
    x56        c35         2.3065941802998626
    x57        obj        2.0853274236894981
    x57        c8         1.3670402232907528
    x57        c10         2.8822182730445465
    x57        c17         2.6584912979843631
    x57        c24         1.2993074779809581
    x57        c25         0.61127259432831826
    x57        c28         1.4977815139062955
    x57        c29         0.62195789830508863
    x58        obj        5.0006080749082535
    x58        c20         0.96577407112410207
    x58        c31         1.1647954832955838
    x58        c32         2.4969746234824806
    x58        c39         1.9200852583282506
    x59        obj        2.152583246533518
    x59        c5         2.2467888492531225
    x59        c35         2.7755549981248078
    x60        obj        8.7065127814436174
    x60        c1         0.99316134856679239
    x60        c10         0.97857362696270811
    x60        c14         2.6228462705371216
    x60        c15         1.4391121802212448
    x60        c29         1.4522881648131714
    x61        obj        4.4261166483640944
    x61        c17         1.0075064889096959
    x61        c37         1.5610616212707256
    x62        obj        7.0193107453685508
    x62        c4         1.6030682457519394
    x62        c11         0.73738461740712924
    x62        c17         2.6688240473390494
    x62        c31         2.7151326938205589
    x63        obj        2.3902956390987731
    x63        c10         2.179107607003584
    x63        c29         0.73329003059637787
    x64        obj        1.2078221453892368
    x64        c7         2.531926636584175
    x64        c16         2.4531762669279225
    x64        c21         2.8678360235781351
    x64        c32         2.1912946285132722
    x65        obj        9.9766628588223885
    x65        c17         1.2554205371396361
    x65        c20         0.61530738791041328
    x65        c32         1.1640130636941151
    x66        obj        2.8258200077727644
    x66        c3         0.58210370287778213
    x66        c7         1.4276730714629275
    x66        c13         2.9589648442060423
    x66        c19         1.2153964700030813
    x66        c25         0.96128478891590907
    x66        c33         1.8983196144971606
    x66        c36         0.59070582927965753
    x67        obj        4.8242237268938393
    x67        c15         0.66955043169005923
    x67        c33         2.514883674791331
    x68        obj        6.6598998612127787
    x68        c4         1.2684795539602605
    x68        c11         0.62964915263333632
    x68        c18         0.69853019495040758
    x68        c20         1.2926450426608667
    x68        c38         2.329788328007778
    x69        obj        3.2308494391910072
    x69        c10         1.9308636236793126
    x69        c13         2.5574442076833845
    x69        c31         0.60402708775224956
    x69        c34         0.54364521017065803
    x70        obj        7.8825167369904037
    x70        c18         2.6601509881945367
    x70        c19         2.1428044953063936
    x70        c24         1.703001337791354
    x70        c33         1.8777484215227602
    x71        obj        8.3013785668708699
    x71        c1         1.853175848740773
    x71        c4         2.1270907768933922
    x71        c5         1.0184034687479526
    x71        c12         1.1746544444023965
    x71        c29         2.5873394432475307
    x71        c37         2.4399624542491036
    x72        obj        2.8376636516792075
    x72        c0         2.7823425401188251
    x72        c1         1.4317926265118035
    x72        c19         2.129543315551607
    x72        c21         0.73029287344373039
    x72        c26         2.24727439300543
    x72        c33         1.5926876165867636
    x73        obj        6.6664066283272136
    x73        c15         2.4767451424680575
    x73        c34         0.87251921216661854
    x74        obj        2.5403745042241388
    x74        c4         2.1006418215799751
    x74        c6         1.4353500869282869
    x74        c12         0.8231425705805171
    x74        c19         1.68505203066008
    x74        c27         1.3433446488917111
    x74        c31         0.8122243247271741
    x75        obj        9.7140815725271832
    x75        c6         2.2752802252506727
    x75        c7         2.3086900779761885
    x75        c12         2.6004357666414117
    x75        c14         1.7651209703142887
    x75        c27         2.8269905957260004
    x75        c31         1.5357984464926737
    x76        obj        7.7813429937050334
    x76        c2         1.929818116187775
    x76        c6         1.2724171549295999
    x76        c7         2.1799080449661918
    x76        c9         0.86747056868198702
    x76        c10         0.92950218825243691
    x76        c16         1.5169375412681856
    x76        c27         2.6142756575012216
    x76        c28         0.93450773025449863
    x76        c29         1.5625461513347314
    x76        c30         2.3587367414647402
    x76        c34         1.912196332205196
    x76        c38         1.7902367228005163
    x77        obj        8.4795427108417805
    x77        c1         1.9241882705672926
    x77        c5         2.0591765005711355
    x77        c17         0.674339530468125
    x77        c22         2.3470990059177854
    x78        obj        9.1015571926734147
    x78        c17         1.3872924510210267
    x78        c27         1.4911621456267652
    x78        c34         1.0321419124601532
    x78        c36         2.5385074150520945
    x79        obj        5.1923472779174888
    x79        c3         1.3852721719837429
    x79        c14         0.57736939434779178
    x79        c18         1.1064994444464715
    x79        c26         1.1741137173933232
    x79        c28         2.4117314445309841
    x79        c31         0.98913643826367004
RHS
    rhs       c0         6.1121077911580164
    rhs       c1         6.474816229611168
    rhs       c2         8.5513642064364941
    rhs       c3         10.68815491208565
    rhs       c4         7.1363206043040401
    rhs       c5         8.5077092171768101
    rhs       c6         7.3775808234968494
    rhs       c7         9.1734647741324196
    rhs       c8         8.5001275137937302
    rhs       c9         8.5111511438084779
    rhs       c10         9.7374697429185826
    rhs       c11         5.8201378571234192
    rhs       c12         7.2369072452406469
    rhs       c13         10.130940632086491
    rhs       c14         8.9539207874045221
    rhs       c15         8.4422615524602271
    rhs       c16         7.6339841977668179
    rhs       c17         8.6141455605801411
    rhs       c18         6.964898598438312
    rhs       c19         9.1485639977714204
    rhs       c20         6.7089657146478379
    rhs       c21         8.434870147347814
    rhs       c22         7.6117539744270157
    rhs       c23         8.63979005378172
    rhs       c24         8.1666323281167355
    rhs       c25         7.1329171641338078
    rhs       c26         7.201725852658635
    rhs       c27         10.689716393157981
    rhs       c28         10.561821237285502
    rhs       c29         7.8720436934344926
    rhs       c30         8.7011827931936097
    rhs       c31         5.4692489088189324
    rhs       c32         8.6557032960052904
    rhs       c33         9.0542504439309308
    rhs       c34         6.4018079798225136
    rhs       c35         8.107240139634472
    rhs       c36         7.930031396289726
    rhs       c37         6.7115824846561267
    rhs       c38         9.3397519319515059
    rhs       c39         7.8255775228820603
BOUNDS
 BV bnd       x0
 BV bnd       x1
 BV bnd       x2
 BV bnd       x3
 BV bnd       x4
 BV bnd       x5
 BV bnd       x6
 BV bnd       x7
 BV bnd       x8
 BV bnd       x9
 BV bnd       x10
 BV bnd       x11
 BV bnd       x12
 BV bnd       x13
 BV bnd       x14
 BV bnd       x15
 BV bnd       x16
 BV bnd       x17
 BV bnd       x18
 BV bnd       x19
 BV bnd       x20
 BV bnd       x21
 BV bnd       x22
 BV bnd       x23
 BV bnd       x24
 BV bnd       x25
 BV bnd       x26
 BV bnd       x27
 BV bnd       x28
 BV bnd       x29
 BV bnd       x30
 BV bnd       x31
 BV bnd       x32
 BV bnd       x33
 BV bnd       x34
 BV bnd       x35
 BV bnd       x36
 BV bnd       x37
 BV bnd       x38
 BV bnd       x39
 LO bnd       x40         0
 UP bnd       x40         1
 LO bnd       x41         0
 UP bnd       x41         1
 LO bnd       x42         0
 UP bnd       x42         1
 LO bnd       x43         0
 UP bnd       x43         1
 LO bnd       x44         0
 UP bnd       x44         1
 LO bnd       x45         0
 UP bnd       x45         1
 LO bnd       x46         0
 UP bnd       x46         1
 LO bnd       x47         0
 UP bnd       x47         1
 LO bnd       x48         0
 UP bnd       x48         1
 LO bnd       x49         0
 UP bnd       x49         1
 LO bnd       x50         0
 UP bnd       x50         1
 LO bnd       x51         0
 UP bnd       x51         1
 LO bnd       x52         0
 UP bnd       x52         1
 LO bnd       x53         0
 UP bnd       x53         1
 LO bnd       x54         0
 UP bnd       x54         1
 LO bnd       x55         0
 UP bnd       x55         1
 LO bnd       x56         0
 UP bnd       x56         1
 LO bnd       x57         0
 UP bnd       x57         1
 LO bnd       x58         0
 UP bnd       x58         1
 LO bnd       x59         0
 UP bnd       x59         1
 LO bnd       x60         0
 UP bnd       x60         1
 LO bnd       x61         0
 UP bnd       x61         1
 LO bnd       x62         0
 UP bnd       x62         1
 LO bnd       x63         0
 UP bnd       x63         1
 LO bnd       x64         0
 UP bnd       x64         1
 LO bnd       x65         0
 UP bnd       x65         1
 LO bnd       x66         0
 UP bnd       x66         1
 LO bnd       x67         0
 UP bnd       x67         1
 LO bnd       x68         0
 UP bnd       x68         1
 LO bnd       x69         0
 UP bnd       x69         1
 LO bnd       x70         0
 UP bnd       x70         1
 LO bnd       x71         0
 UP bnd       x71         1
 LO bnd       x72         0
 UP bnd       x72         1
 LO bnd       x73         0
 UP bnd       x73         1
 LO bnd       x74         0
 UP bnd       x74         1
 LO bnd       x75         0
 UP bnd       x75         1
 LO bnd       x76         0
 UP bnd       x76         1
 LO bnd       x77         0
 UP bnd       x77         1
 LO bnd       x78         0
 UP bnd       x78         1
 LO bnd       x79         0
 UP bnd       x79         1
ENDATA
