NAME qp_100x50
ROWS
 N obj
 G c0
 G c1
 G c2
 G c3
 G c4
 G c5
 G c6
 G c7
 G c8
 G c9
 G c10
 G c11
 G c12
 G c13
 G c14
 G c15
 G c16
 G c17
 G c18
 G c19
 G c20
 G c21
 G c22
 G c23
 G c24
 G c25
 G c26
 G c27
 G c28
 G c29
 G c30
 G c31
 G c32
 G c33
 G c34
 G c35
 G c36
 G c37
 G c38
 G c39
 G c40
 G c41
 G c42
 G c43
 G c44
 G c45
 G c46
 G c47
 G c48
 G c49
COLUMNS
    x0        obj        0.40663054591343561
    x0        c1         1.8900384080970762
    x0        c17         1.7051828575549159
    x0        c21         0.40493490986893965
    x0        c26         1.7905768280494481
    x0        c32         0.263727749488046
    x0        c34         0.80544068184146378
    x0        c39         0.29888276508674905
    x1        obj        0.78906313367514902
    x1        c3         0.62825219048571435
    x1        c6         1.5681601873269995
    x1        c16         1.3350389273259224
    x1        c27         0.6726665411095748
    x1        c38         0.36744559445827996
    x2        obj        0.0014227626551327477
    x2        c5         0.50922302805761488
    x2        c15         0.9194572326979471
    x2        c30         0.71752426700925842
    x2        c32         1.5862981668040528
    x2        c36         1.2663200777930455
    x3        obj        0.043137368275890542
    x3        c6         1.7620979023489143
    x3        c42         0.45966541117923942
    x3        c49         1.9702364529546474
    x4        obj        0.8168546167053935
    x4        c3         0.52500765897499624
    x4        c14         0.86152026829130579
    x4        c17         0.55189257020508864
    x4        c24         0.69424283089367311
    x4        c45         1.0608675500811116
    x5        obj        0.53110074750183345
    x5        c0         1.3991955449538958
    x5        c12         0.10444566519527371
    x5        c27         1.9864296327908715
    x5        c40         1.8321636040147609
    x5        c45         0.79621696773215345
    x6        obj        0.068623654114926325
    x6        c12         1.5157468817234174
    x6        c19         1.0332750415260508
    x6        c22         0.24083606192478607
    x6        c30         0.44568497851081612
    x6        c33         1.2946151204635321
    x6        c45         1.2420407110016696
    x7        obj        0.22257972057036413
    x7        c6         0.24702742437907091
    x7        c19         1.4760984483488488
    x7        c21         1.1863545588929749
    x7        c32         1.0349731316745643
    x7        c46         1.7751770416011192
    x8        obj        0.050225445410572944
    x8        c0         0.86801623545307627
    x8        c10         0.70303363334589375
    x8        c32         0.63893796425515925
    x8        c38         0.23986378362713284
    x8        c47         0.26221344313216272
    x8        c48         1.6186142467705356
    x9        obj        0.22992840823755201
    x9        c15         0.51534484744599629
    x9        c17         1.2387849441354741
    x9        c23         1.3365740169395421
    x9        c28         0.75065983473968345
    x9        c34         1.9481453972187996
    x9        c36         1.4219215518133079
    x9        c39         1.7754489890268552
    x9        c49         1.925115790434188
    x10        obj        0.88863328010716602
    x10        c7         0.55414608732434145
    x10        c11         0.28205736856624741
    x10        c33         1.9460187914716955
    x10        c36         1.9461477628973403
    x10        c46         1.4018592591476735
    x11        obj        0.55976521397377943
    x11        c1         1.3456803598742859
    x11        c6         1.4992690805895719
    x11        c10         0.32917331215514256
    x11        c11         0.83269357467803895
    x11        c20         1.1193886853338006
    x11        c25         0.64417610981091566
    x11        c28         1.5437847523714074
    x11        c36         1.0020657484246112
    x11        c42         0.73068204681545035
    x12        obj        0.074678745920315204
    x12        c4         0.5177754615849024
    x12        c19         0.29412142930186658
    x12        c39         0.95212586376159924
    x12        c45         1.9018653456642285
    x13        obj        0.5466389499996247
    x13        c0         1.867156556240722
    x13        c10         0.97148844319302718
    x13        c27         0.56194317663914961
    x13        c46         1.2027376727357038
    x13        c47         0.78667167588709985
    x14        obj        0.65590438481999236
    x14        c3         1.3273517484422608
    x14        c14         0.22002694384204785
    x14        c31         0.3699605719129575
    x14        c43         1.6248712985050922
    x15        obj        0.43744087304631174
    x15        c7         0.66745570360627926
    x15        c24         1.1571187086536701
    x15        c46         1.1072822218841671
    x15        c47         0.56840313603901049
    x16        obj        0.73571145936561277
    x16        c5         0.16544133521124471
    x16        c14         0.3140827366622575
    x16        c20         1.5398121654000581
    x16        c41         1.5325618099781269
    x17        obj        0.12776548477398564
    x17        c13         0.8090420442201669
    x17        c14         0.62451662371989036
    x17        c20         0.11525798093209759
    x17        c48         1.2992452930916094
    x18        obj        0.8773087214144879
    x18        c2         1.2427850806157179
    x18        c22         0.82730583844313277
    x18        c26         0.27498610641039489
    x18        c35         1.248817920610622
    x18        c43         1.0444910652872648
    x19        obj        0.85150546786461423
    x19        c0         0.23829833953083859
    x19        c1         1.4677657123236774
    x19        c15         1.2357216848976895
    x19        c20         0.41439224118060569
    x19        c27         0.66232046572159498
    x19        c42         1.0472726179961291
    x20        obj        0.59487238209806226
    x20        c13         1.3922221125586949
    x20        c29         1.9221103895205642
    x20        c33         0.79458988164415312
    x21        obj        0.70846528301474609
    x21        c7         1.3034748044967321
    x21        c26         0.20878129012752328
    x21        c36         1.5082865063328359
    x21        c43         1.7426409313085696
    x22        obj        0.45093811765111957
    x22        c25         0.14783837937171546
    x23        obj        0.062558481776032071
    x23        c1         0.5435101811302846
    x23        c17         0.91323639917455968
    x23        c20         1.7988691714637302
    x23        c34         0.65274905376068959
    x23        c38         0.72980447668712234
    x23        c41         0.25065958840764346
    x24        obj        0.70246773758980463
    x24        c7         1.5999734694530083
    x24        c12         1.9375065647955139
    x24        c44         0.79250029357674467
    x24        c45         0.5116600838697607
    x24        c49         1.1163704771180607
    x25        obj        0.094876811563384789
    x25        c18         0.20364717545280064
    x25        c25         1.5236699601301427
    x25        c33         1.7520942774441652
    x25        c44         1.0844943356043308
    x26        obj        0.39089925460678221
    x26        c3         0.16056535953679774
    x26        c9         1.4877260245734754
    x27        obj        0.45775665006661093
    x27        c3         0.93870562666697321
    x27        c8         1.3778828441546518
    x27        c10         0.43115071681911787
    x27        c24         0.92935754940281901
    x27        c25         0.7920280314028767
    x27        c37         0.92346743615878402
    x28        obj        0.8679380860318241
    x28        c38         0.42840039496880933
    x28        c47         1.892710777599474
    x29        obj        0.33676580393165767
    x29        c17         1.8053661361040654
    x30        obj        0.29244835386133849
    x30        c4         0.75622582036817032
    x30        c12         0.43839503549026981
    x30        c23         1.0987594168592099
    x30        c34         0.21943565833299294
    x30        c37         1.5970034763252765
    x30        c39         1.9019417046116474
    x31        obj        0.033894687933084588
    x31        c8         1.9865560897231402
    x31        c11         1.0574550317644422
    x31        c24         0.33066411567571974
    x31        c28         0.40879382646361906
    x31        c46         0.7250386538306367
    x32        obj        0.29238235755679487
    x32        c21         0.5657562562362205
    x32        c22         0.82428122672589754
    x32        c41         1.5229953168124868
    x32        c46         1.5589966604667833
    x33        obj        0.12653214786466083
    x33        c10         0.29424304219517533
    x33        c37         1.8572098681021836
    x33        c38         1.7367410793709486
    x33        c41         0.54095609822971868
    x33        c42         0.69286500832833176
    x33        c43         1.6885130378081239
    x34        obj        0.32122456706521285
    x34        c9         1.8039031606140452
    x34        c18         0.94729950993451106
    x34        c22         1.5336331066813791
    x34        c25         1.7198722824757677
    x35        obj        0.52846548820769823
    x35        c1         1.6821785385322117
    x35        c6         1.7933706040944104
    x35        c8         1.8903887613965249
    x35        c13         1.1937043274439585
    x35        c19         1.5249763160200862
    x35        c23         1.5207539372559116
    x35        c25         0.65267878604171747
    x35        c28         0.69689088309706826
    x35        c42         0.74938989418006474
    x35        c48         1.5373854294128035
    x36        obj        0.41060766180891684
    x36        c15         1.3922090692611073
    x36        c26         0.83472198622107208
    x37        obj        0.7076590351832186
    x37        c3         0.66861310688178732
    x37        c18         1.2945552220633558
    x37        c26         1.234725811475929
    x37        c28         1.5785583297295636
    x37        c35         0.17598749670472069
    x37        c47         0.29650248436866911
    x38        obj        0.074372219248699523
    x38        c14         1.4428381449871601
    x38        c36         1.9407858666197588
    x38        c39         1.2306579307179102
    x39        obj        0.83135699109515859
    x39        c0         0.31791912582908255
    x39        c6         1.3516164482586761
    x39        c32         1.3335148643820076
    x40        obj        0.040372646478169294
    x40        c6         1.8003908456149142
    x40        c7         0.13563832979039681
    x40        c12         1.4864340981018886
    x40        c20         1.158735906117337
    x40        c21         1.1123817355853407
    x41        obj        0.40063391268427473
    x41        c9         0.3742026139358019
    x41        c22         1.3786636272259458
    x41        c49         1.6652582936669584
    x42        obj        0.93817252855996458
    x42        c1         1.0715488637958881
    x42        c4         1.3433293424425885
    x42        c23         0.37373293154282294
    x42        c41         1.7821106748498776
    x43        obj        0.69510310870367109
    x43        c2         0.8342438204382332
    x43        c13         0.20448319861803785
    x43        c14         1.7868834992558451
    x43        c40         0.53003916603671997
    x43        c44         0.99717224687463624
    x43        c48         1.8026549984046765
    x44        obj        0.078302966246718619
    x44        c0         1.7919241937163535
    x44        c16         1.8725113816886609
    x44        c44         1.0010154134164817
    x44        c46         0.65727128620146091
    x45        obj        0.31664941603988517
    x45        c2         1.0523573890454672
    x45        c29         0.15583857041354154
    x46        obj        0.824557720047708
    x46        c10         0.68067354447625128
    x46        c31         0.8922887212629641
    x47        obj        0.060779289204004106
    x47        c5         1.0506365085619849
    x47        c13         0.47191266459594661
    x48        obj        0.36233918690221756
    x48        c8         0.30460394277657893
    x48        c18         1.0903974118523156
    x48        c19         0.47628736884828016
    x49        obj        0.52950084239853523
    x49        c0         1.7849918562155034
    x49        c30         1.1820954117429721
    x49        c45         1.7147656016009278
    x49        c48         0.84327960865086327
    x50        obj        0.70395614562955577
    x50        c1         0.76627054922721483
    x50        c2         1.1270352035303512
    x50        c11         0.48029599665295808
    x50        c17         1.852569720608823
    x50        c23         0.95173712902971086
    x50        c28         0.13825348478106292
    x50        c42         1.4231134385031916
    x50        c44         0.49629916997525592
    x50        c47         1.3197001930730172
    x51        obj        0.18503488111199129
    x51        c6         1.86901621883075
    x51        c10         1.1968447804759652
    x51        c16         0.84321387661016589
    x51        c18         1.7300557101925693
    x51        c24         1.2478521802746338
    x51        c36         0.99998387758506513
    x51        c45         0.24500035872563275
    x52        obj        0.86846268100374358
    x52        c7         0.19965051816253887
    x52        c12         1.3356927654215569
    x52        c13         1.010465716271473
    x52        c39         1.4053206847440602
    x52        c46         0.94796417189380211
    x53        obj        0.41216675317645002
    x53        c11         1.8332035672132962
    x53        c16         0.96119867814129556
    x53        c33         1.7383071835454265
    x53        c36         0.91648378328741531
    x53        c37         1.0169850261263862
    x53        c39         0.50841608121817172
    x54        obj        0.7242273798894926
    x54        c15         0.1117497546643398
    x54        c27         1.1733519067182503
    x54        c31         0.5263927798386091
    x54        c34         0.80180575578399538
    x54        c43         1.8952500375297832
    x54        c46         0.7600996991341098
    x55        obj        0.48300978415388351
    x55        c4         0.39427358143424551
    x55        c49         1.2124923221638793
    x56        obj        0.19091685566584982
    x56        c23         0.39362291680954742
    x56        c29         0.15575204288585318
    x56        c35         1.252629253879648
    x56        c38         1.3809912676145095
    x56        c44         0.14979174142100066
    x57        obj        0.081148590030703183
    x57        c7         1.8050724188141136
    x57        c11         1.9697103017908995
    x57        c33         0.29538474787068347
    x57        c49         1.4079790223471444
    x58        obj        0.086894918820934142
    x58        c12         0.27852944537986835
    x58        c22         0.31604696136840649
    x58        c30         1.8971287557466274
    x58        c41         1.239397068368475
    x59        obj        0.51011377640651012
    x59        c2         0.91914756508643725
    x59        c15         0.32799313774658589
    x59        c22         0.72755374023393693
    x59        c24         0.49479353503609436
    x59        c40         1.6821313154575597
    x60        obj        0.027372846909580861
    x60        c8         0.62962833630426629
    x60        c9         1.7870021718729105
    x60        c27         1.1888341956981647
    x60        c38         0.96582523654327834
    x60        c43         0.97401920833969513
    x61        obj        0.8576903206446439
    x61        c15         0.45001428414756461
    x61        c30         0.79575486282618768
    x61        c40         0.40848148629329029
    x62        obj        0.98120537572192534
    x62        c2         1.7036598662860312
    x62        c17         1.3841448242771086
    x62        c26         1.8878483017757268
    x62        c30         0.25876271382318361
    x62        c35         1.3456354083028641
    x63        obj        0.14126492489001607
    x63        c3         0.77399622171090265
    x63        c4         0.49304993932546226
    x63        c28         1.4747854245316323
    x63        c29         1.6045863840766506
    x63        c31         0.15586069410248704
    x63        c32         0.16929958918253452
    x63        c39         1.2821024155422698
    x63        c42         0.83986009039468845
    x63        c43         1.7579551240222144
    x63        c45         1.5605100325730668
    x64        obj        0.47104835848265136
    x64        c10         1.9042103245511734
    x64        c15         0.7076704014208135
    x64        c37         0.91669006165866751
    x64        c38         1.2678874433608225
    x64        c40         0.91380351399923654
    x64        c44         0.97516450405823063
    x65        obj        0.25599514710737703
    x65        c11         1.3588454458687773
    x65        c18         0.2061202715765767
    x65        c37         1.7502129908116613
    x66        obj        0.95338013579438652
    x66        c23         1.7878340897016618
    x66        c29         0.9588568467118832
    x66        c30         0.23994599801952937
    x66        c46         0.8010044254150015
    x66        c47         1.0008962332902542
    x67        obj        0.1524946631663483
    x67        c2         1.1555583492810926
    x67        c3         0.52705767504547396
    x67        c18         0.27165726726980483
    x67        c21         0.82424916408350302
    x67        c32         0.24675113548804939
    x67        c34         0.20526622115739984
    x67        c35         1.9209934977414034
    x68        obj        0.8156624617028686
    x68        c4         1.25067101039033
    x68        c22         0.94421042881613093
    x68        c25         0.21866011639953031
    x69        obj        0.031244214340923171
    x69        c28         0.15251683700967691
    x69        c30         1.9005144665707305
    x69        c41         0.40255936014452842
    x69        c43         1.8633581033811166
    x70        obj        0.57931483546371632
    x70        c19         1.332226307280912
    x70        c49         0.11216648933530138
    x71        obj        0.23052409107850547
    x71        c0         1.085921835928598
    x71        c6         1.640978805596109
    x71        c8         0.63535271047663944
    x71        c9         0.15854408199834563
    x71        c12         1.1802980863732024
    x71        c16         1.2403914915125942
    x71        c24         1.191470704565597
    x71        c37         0.28206681340014306
    x72        obj        0.72984317527090636
    x72        c5         0.71168630987495585
    x72        c39         1.9626264692581969
    x72        c43         0.8938238276434024
    x72        c48         1.4562897214872497
    x73        obj        0.11490922271651671
    x73        c19         0.83617729204871527
    x73        c20         1.6341745570589201
    x73        c33         1.0869458972106929
    x74        obj        0.058585890877276392
    x74        c14         0.39855458468791782
    x74        c23         0.29728251401506978
    x74        c29         1.3535091816750033
    x75        obj        0.016128779474254507
    x75        c25         0.69790538864629348
    x75        c26         1.8761591734790444
    x75        c49         0.19835871797168569
    x76        obj        0.95775618552325037
    x76        c4         1.677392630737798
    x76        c24         0.8274294334127501
    x76        c26         1.2221846514696997
    x76        c32         0.20369190298339079
    x76        c35         0.90207526393797255
    x76        c44         0.93779658377746178
    x76        c45         0.49091224774670961
    x77        obj        0.75417183204860938
    x77        c35         1.2948201835490258
    x77        c36         1.6629932275602233
    x78        obj        0.76781785046430306
    x78        c1         1.4873965784106415
    x78        c2         1.4715773677374597
    x78        c11         1.5806428878934078
    x78        c17         1.9425360844604196
    x78        c28         0.24889898256590304
    x78        c31         0.84239541991323408
    x78        c47         1.191932270002781
    x79        obj        0.90083584323557586
    x79        c9         0.6032264280147045
    x79        c10         1.8973282211169495
    x79        c16         1.6717420487009309
    x79        c27         1.7528725795682398
    x79        c37         0.62974815225658487
    x80        obj        0.49690219766087562
    x80        c13         1.9354260522187079
    x80        c18         1.7314761676749337
    x80        c21         1.5276221425921084
    x80        c35         1.5170485372730529
    x80        c40         1.0098863596328684
    x80        c44         1.3401540049210459
    x80        c47         1.1392421202401657
    x81        obj        0.91586462556535664
    x81        c19         0.31781554398544198
    x81        c31         1.5643550825370212
    x81        c48         1.1639567637596269
    x82        obj        0.61662209443719429
    x82        c5         0.33030967498377117
    x82        c40         1.5160709845015068
    x83        obj        0.59252712361857418
    x83        c0         0.3376781712415664
    x83        c2         0.44025202345905279
    x83        c5         0.81361633338402273
    x83        c16         0.4210117399760045
    x83        c17         0.28531586260200792
    x83        c20         1.8646710579801369
    x83        c21         0.35352019596986217
    x83        c25         1.3709240893062422
    x83        c34         0.53898301194912657
    x83        c37         0.36619896800399598
    x83        c41         0.52523263907240347
    x84        obj        0.17294265132356257
    x84        c6         0.71353425494892686
    x84        c16         0.97867263147684902
    x84        c18         1.2553352180068489
    x84        c21         0.57134797516349278
    x84        c48         1.8464506308957191
    x85        obj        0.66430977155844262
    x85        c24         1.7274618060647013
    x85        c33         0.77708548626728902
    x85        c38         1.3427688413881367
    x85        c42         0.62566435263926912
    x86        obj        0.60652342970133455
    x86        c4         1.442028677765415
    x86        c20         1.9925964579455362
    x86        c23         0.59474096253872066
    x86        c27         0.86271960181646168
    x86        c28         0.99383226285828385
    x86        c29         1.5337969975359225
    x86        c33         1.5313346578141878
    x87        obj        0.81878914562559124
    x87        c5         1.3893931526599741
    x87        c15         0.74995061361020932
    x87        c29         1.799891789627903
    x87        c35         0.58218231716812929
    x87        c42         1.2878250104648765
    x88        obj        0.5250423060845939
    x88        c3         1.3624721922680234
    x88        c14         1.1743801253685535
    x88        c42         1.1286872914641928
    x89        obj        0.25255714630498594
    x89        c5         1.2583489189134403
    x89        c8         0.76657052632995104
    x89        c10         0.60311885357848694
    x89        c26         1.7732294492346219
    x89        c40         0.36023267395474579
    x89        c49         0.40927731832904024
    x90        obj        0.88504992399194216
    x90        c11         1.4102303577469422
    x90        c12         0.97996414616148775
    x90        c13         1.7965555299493683
    x90        c14         0.92689992473010152
    x90        c19         1.3762171863993167
    x90        c31         1.8007286613472377
    x90        c34         1.1735449110723004
    x90        c40         0.68461045792260522
    x90        c44         0.73810907727701358
    x91        obj        0.44867722800684795
    x91        c2         0.26602458363616566
    x91        c8         0.51945589710538587
    x91        c20         0.59935571443668012
    x91        c31         1.6404445780646066
    x92        obj        0.97775214583408498
    x92        c9         0.29908968648079542
    x92        c11         1.3181526995799249
    x92        c12         0.25538593154315653
    x92        c29         0.64057568327095193
    x92        c30         1.8588382587256262
    x92        c41         0.43138989848015563
    x93        obj        0.34373870492921565
    x93        c5         0.6648404280430622
    x93        c9         0.78876190366955512
    x93        c33         0.92451746564545523
    x94        obj        0.097185635563568296
    x94        c1         1.2850507177047061
    x94        c4         0.46981349830579289
    x94        c23         1.4492693143199022
    x94        c30         1.7504290839615251
    x94        c31         1.8998364548907682
    x94        c34         1.8880753291131633
    x95        obj        0.79185500007758503
    x95        c4         1.9930031862740545
    x95        c14         0.59585340577842216
    x95        c34         1.5564030151055848
    x95        c36         1.098052033841016
    x95        c48         0.84899626700316189
    x96        obj        0.57833391583484295
    x96        c9         0.97286708719796722
    x96        c24         0.38886705456436044
    x96        c29         1.6879704045408763
    x96        c31         1.6660339790420313
    x96        c39         1.0754398833323788
    x97        obj        0.79859835234864252
    x97        c1         0.20244831909211414
    x97        c13         0.77817750051910539
    x97        c16         1.0505473602220641
    x97        c21         0.6020672970456139
    x97        c22         1.8011019068926257
    x97        c26         1.9146170634224478
    x97        c27         0.26266444105616105
    x97        c32         1.6012732343069891
    x97        c47         1.6782965549489193
    x98        obj        0.68272886830583723
    x98        c0         0.96651971983784835
    x98        c7         0.20130260699892699
    x98        c8         1.7779792831209906
    x98        c18         0.90543445176721371
    x98        c22         0.50098220036468089
    x98        c27         1.2195277227103773
    x98        c48         0.92993052171281876
    x98        c49         0.26000599353287807
    x99        obj        0.77095743604201905
    x99        c7         1.0715321366841384
    x99        c8         0.38621862540793261
RHS
    rhs       c0         4.2630486315789939
    rhs       c1         4.6967552912752408
    rhs       c2         4.085056499646404
    rhs       c3         2.7648087120051721
    rhs       c4         4.1350252594515045
    rhs       c5         2.7573982758760285
    rhs       c6         5.6981847087953374
    rhs       c7         3.0152984301321908
    rhs       c8         4.1098548067184248
    rhs       c9         3.3101292633430406
    rhs       c10         3.6045059487628737
    rhs       c11         4.8493148927019742
    rhs       c12         3.8049594480742543
    rhs       c13         3.8367956585581839
    rhs       c14         3.3382225029294008
    rhs       c15         2.5640444103569013
    rhs       c16         4.1497312542617948
    rhs       c17         4.671611759648985
    rhs       c18         3.8543913623163721
    rhs       c19         3.4668779735038076
    rhs       c20         4.8949015751395608
    rhs       c21         2.8592936941752227
    rhs       c22         3.637846039470769
    rhs       c23         3.9217228916048401
    rhs       c24         3.5957031674176081
    rhs       c25         3.1071012574340808
    rhs       c26         5.2071322646663631
    rhs       c27         4.1373321055315389
    rhs       c28         3.1947898472591607
    rhs       c29         4.7251553161036597
    rhs       c30         4.4186715187745831
    rhs       c31         4.5433187771647665
    rhs       c32         2.8313870954259177
    rhs       c33         4.8563574037509127
    rhs       c34         3.9159396141342064
    rhs       c35         4.0960759516669754
    rhs       c36         5.5052161744618475
    rhs       c37         3.735833117137473
    rhs       c38         3.3838912472076164
    rhs       c39         4.9571851149199357
    rhs       c40         3.5749678247253174
    rhs       c41         3.2911449817373666
    rhs       c42         3.5940100647861737
    rhs       c43         5.393969053530105
    rhs       c44         3.4049989483608805
    rhs       c45         3.8095355595981042
    rhs       c46         4.3749724369241836
    rhs       c47         4.0546275554326217
    rhs       c48         5.3387213924756267
    rhs       c49         4.1109043511415138
BOUNDS
 LO bnd       x0         0
 UP bnd       x0         1
 LO bnd       x1         0
 UP bnd       x1         1
 LO bnd       x2         0
 UP bnd       x2         1
 LO bnd       x3         0
 UP bnd       x3         1
 LO bnd       x4         0
 UP bnd       x4         1
 LO bnd       x5         0
 UP bnd       x5         1
 LO bnd       x6         0
 UP bnd       x6         1
 LO bnd       x7         0
 UP bnd       x7         1
 LO bnd       x8         0
 UP bnd       x8         1
 LO bnd       x9         0
 UP bnd       x9         1
 LO bnd       x10         0
 UP bnd       x10         1
 LO bnd       x11         0
 UP bnd       x11         1
 LO bnd       x12         0
 UP bnd       x12         1
 LO bnd       x13         0
 UP bnd       x13         1
 LO bnd       x14         0
 UP bnd       x14         1
 LO bnd       x15         0
 UP bnd       x15         1
 LO bnd       x16         0
 UP bnd       x16         1
 LO bnd       x17         0
 UP bnd       x17         1
 LO bnd       x18         0
 UP bnd       x18         1
 LO bnd       x19         0
 UP bnd       x19         1
 LO bnd       x20         0
 UP bnd       x20         1
 LO bnd       x21         0
 UP bnd       x21         1
 LO bnd       x22         0
 UP bnd       x22         1
 LO bnd       x23         0
 UP bnd       x23         1
 LO bnd       x24         0
 UP bnd       x24         1
 LO bnd       x25         0
 UP bnd       x25         1
 LO bnd       x26         0
 UP bnd       x26         1
 LO bnd       x27         0
 UP bnd       x27         1
 LO bnd       x28         0
 UP bnd       x28         1
 LO bnd       x29         0
 UP bnd       x29         1
 LO bnd       x30         0
 UP bnd       x30         1
 LO bnd       x31         0
 UP bnd       x31         1
 LO bnd       x32         0
 UP bnd       x32         1
 LO bnd       x33         0
 UP bnd       x33         1
 LO bnd       x34         0
 UP bnd       x34         1
 LO bnd       x35         0
 UP bnd       x35         1
 LO bnd       x36         0
 UP bnd       x36         1
 LO bnd       x37         0
 UP bnd       x37         1
 LO bnd       x38         0
 UP bnd       x38         1
 LO bnd       x39         0
 UP bnd       x39         1
 LO bnd       x40         0
 UP bnd       x40         1
 LO bnd       x41         0
 UP bnd       x41         1
 LO bnd       x42         0
 UP bnd       x42         1
 LO bnd       x43         0
 UP bnd       x43         1
 LO bnd       x44         0
 UP bnd       x44         1
 LO bnd       x45         0
 UP bnd       x45         1
 LO bnd       x46         0
 UP bnd       x46         1
 LO bnd       x47         0
 UP bnd       x47         1
 LO bnd       x48         0
 UP bnd       x48         1
 LO bnd       x49         0
 UP bnd       x49         1
 LO bnd       x50         0
 UP bnd       x50         1
 LO bnd       x51         0
 UP bnd       x51         1
 LO bnd       x52         0
 UP bnd       x52         1
 LO bnd       x53         0
 UP bnd       x53         1
 LO bnd       x54         0
 UP bnd       x54         1
 LO bnd       x55         0
 UP bnd       x55         1
 LO bnd       x56         0
 UP bnd       x56         1
 LO bnd       x57         0
 UP bnd       x57         1
 LO bnd       x58         0
 UP bnd       x58         1
 LO bnd       x59         0
 UP bnd       x59         1
 LO bnd       x60         0
 UP bnd       x60         1
 LO bnd       x61         0
 UP bnd       x61         1
 LO bnd       x62         0
 UP bnd       x62         1
 LO bnd       x63         0
 UP bnd       x63         1
 LO bnd       x64         0
 UP bnd       x64         1
 LO bnd       x65         0
 UP bnd       x65         1
 LO bnd       x66         0
 UP bnd       x66         1
 LO bnd       x67         0
 UP bnd       x67         1
 LO bnd       x68         0
 UP bnd       x68         1
 LO bnd       x69         0
 UP bnd       x69         1
 LO bnd       x70         0
 UP bnd       x70         1
 LO bnd       x71         0
 UP bnd       x71         1
 LO bnd       x72         0
 UP bnd       x72         1
 LO bnd       x73         0
 UP bnd       x73         1
 LO bnd       x74         0
 UP bnd       x74         1
 LO bnd       x75         0
 UP bnd       x75         1
 LO bnd       x76         0
 UP bnd       x76         1
 LO bnd       x77         0
 UP bnd       x77         1
 LO bnd       x78         0
 UP bnd       x78         1
 LO bnd       x79         0
 UP bnd       x79         1
 LO bnd       x80         0
 UP bnd       x80         1
 LO bnd       x81         0
 UP bnd       x81         1
 LO bnd       x82         0
 UP bnd       x82         1
 LO bnd       x83         0
 UP bnd       x83         1
 LO bnd       x84         0
 UP bnd       x84         1
 LO bnd       x85         0
 UP bnd       x85         1
 LO bnd       x86         0
 UP bnd       x86         1
 LO bnd       x87         0
 UP bnd       x87         1
 LO bnd       x88         0
 UP bnd       x88         1
 LO bnd       x89         0
 UP bnd       x89         1
 LO bnd       x90         0
 UP bnd       x90         1
 LO bnd       x91         0
 UP bnd       x91         1
 LO bnd       x92         0
 UP bnd       x92         1
 LO bnd       x93         0
 UP bnd       x93         1
 LO bnd       x94         0
 UP bnd       x94         1
 LO bnd       x95         0
 UP bnd       x95         1
 LO bnd       x96         0
 UP bnd       x96         1
 LO bnd       x97         0
 UP bnd       x97         1
 LO bnd       x98         0
 UP bnd       x98         1
 LO bnd       x99         0
 UP bnd       x99         1
QUADOBJ
    x0        x0         8.3689472634540021
    x0        x1         0.96924898611575327
    x0        x2         1.6384574870692605
    x0        x3         0.61547425625053465
    x0        x4         -2.5701681016605744
    x0        x5         1.0965341787885732
    x0        x6         -0.18020736549065366
    x0        x7         -0.74545916164932635
    x0        x8         0.63425509162443583
    x0        x9         1.2671290298511806
    x0        x10         -2.7870030029519839
    x0        x11         1.6973562122636476
    x0        x12         0.14059954867883101
    x0        x13         2.3842269960900899
    x0        x14         1.7039118231516226
    x0        x15         0.11383090977148255
    x0        x16         1.4486169060165246
    x0        x17         -0.99175024952101032
    x0        x18         3.82424077613716
    x0        x19         0.67282462917899
    x0        x20         0.35043333969665286
    x0        x21         0.17920913593212601
    x0        x22         0.39436100402527663
    x0        x23         -0.50945098669612665
    x0        x24         -1.0733571492216136
    x0        x25         1.6548394006372735
    x0        x26         2.5761416055780795
    x0        x27         -1.8095745627173543
    x0        x28         -0.22799823103343095
    x0        x29         0.052225695897583663
    x0        x30         1.7102297824496455
    x0        x31         -0.24179886491887914
    x0        x32         3.2336751870970217
    x0        x33         1.634483404860396
    x0        x34         1.1382367795958501
    x0        x35         -0.4233480397138345
    x0        x36         -0.63153900651906081
    x0        x37         0.42689573177668011
    x0        x38         1.4394259438131476
    x0        x39         0.32544156418771436
    x0        x40         1.1898685740936219
    x0        x41         -1.2821371563519481
    x0        x42         0.13561332339484608
    x0        x43         0.92076462850854612
    x0        x44         0.94240184930425219
    x0        x45         1.582561365010186
    x0        x46         -2.8380020612941186
    x0        x47         1.5275685728008035
    x0        x48         0.25741013009332803
    x0        x49         1.4503160491111806
    x0        x50         2.5738976928296831
    x0        x51         1.0909725225396942
    x0        x52         1.25278959038378
    x0        x53         -2.3881280965959655
    x0        x54         -2.4452327563493013
    x0        x55         -2.588618886231933
    x0        x56         0.00098782930285083552
    x0        x57         -2.8328525350543083
    x0        x58         0.79373531108267292
    x0        x59         -1.2443334258631333
    x0        x60         -2.6520933590175644
    x0        x61         1.6490647131819649
    x0        x62         1.7499328010665018
    x0        x63         -1.2177269132905582
    x0        x64         1.0105866232637561
    x0        x65         -0.10874890332816779
    x0        x66         -4.0309730026533011
    x0        x67         -1.9838347996356149
    x0        x68         0.39115010480085155
    x0        x69         -0.12004312746071835
    x0        x70         -3.1214413334156021
    x0        x71         1.8051726062569666
    x0        x72         -0.95025248754867564
    x0        x73         -0.25425393919592137
    x0        x74         2.1310361504616959
    x0        x75         -1.878820192925198
    x0        x76         0.2852928596776243
    x0        x77         1.2137946132614874
    x0        x78         2.3750923813167484
    x0        x79         -0.23072072415019876
    x0        x80         -0.78563871925926854
    x0        x81         0.07220166885645693
    x0        x82         0.17248371814137678
    x0        x83         -0.8891747069472361
    x0        x84         -0.7773213455372141
    x0        x85         0.39489883029700928
    x0        x86         -0.86986265048995304
    x0        x87         0.37091666337533491
    x0        x88         -1.9192816918823321
    x0        x89         -0.84242122887817694
    x0        x90         2.317679773737507
    x0        x91         -1.2374342347322005
    x0        x92         1.8755371962939338
    x0        x93         1.0274379397552085
    x0        x94         0.52158405850780021
    x0        x95         -2.0713972775131535
    x0        x96         -1.1628273835551728
    x0        x97         -1.1020510576785658
    x0        x98         1.8011367837754078
    x0        x99         0.24938082455079838
    x1        x1         8.1589212135206921
    x1        x2         1.0943591996318154
    x1        x3         3.2664814802939461
    x1        x4         1.2894764982705542
    x1        x5         -1.8701949889466123
    x1        x6         -0.9563132764826684
    x1        x7         -0.5879604162884482
    x1        x8         -0.31265338111119678
    x1        x9         3.815596732259102
    x1        x10         -1.229852172824526
    x1        x11         0.97064484440901067
    x1        x12         1.3502287547781089
    x1        x13         1.798266173117508
    x1        x14         3.671551225128586
    x1        x15         -2.71912142689321
    x1        x16         2.3155454960929194
    x1        x17         1.9017395114682147
    x1        x18         4.2439809936105082
    x1        x19         0.53545551200320984
    x1        x20         1.1752386875672147
    x1        x21         0.83692623071470018
    x1        x22         0.83452597461903311
    x1        x23         2.3466849959147584
    x1        x24         2.0274745740776172
    x1        x25         0.55860555286193947
    x1        x26         2.0871418663580883
    x1        x27         0.17017851209624152
    x1        x28         1.1720262944507587
    x1        x29         0.30245644802554728
    x1        x30         1.5712459842271465
    x1        x31         -0.64979194840713794
    x1        x32         0.3251932347148489
    x1        x33         0.65396070819484242
    x1        x34         1.5776854803156128
    x1        x35         -0.25135156895980931
    x1        x36         -0.071356987940409844
    x1        x37         -0.69943037849522871
    x1        x38         -0.43186008290761091
    x1        x39         2.5548259191750651
    x1        x40         -1.8672447330929374
    x1        x41         -4.023949072506527
    x1        x42         -0.67166971993984748
    x1        x43         -2.8958315347666934
    x1        x44         0.31548353752346836
    x1        x45         -1.5711536483200557
    x1        x46         1.5782433821103532
    x1        x47         -0.44343227401956042
    x1        x48         -2.4250464501508997
    x1        x49         3.5733075497637685
    x1        x50         1.1253349792103544
    x1        x51         2.9402355601912222
    x1        x52         -0.31446078517205067
    x1        x53         -0.36485254561382502
    x1        x54         -1.0300891881932863
    x1        x55         -1.6498844545550069
    x1        x56         2.6021825001469532
    x1        x57         0.095203389531163432
    x1        x58         2.9784914433022123
    x1        x59         -0.26374948790046149
    x1        x60         3.044076800715469
    x1        x61         -1.5688082218043609
    x1        x62         0.70923303592403975
    x1        x63         2.007249342835475
    x1        x64         -2.1193590430147822
    x1        x65         -0.012939366517406278
    x1        x66         -1.0797167546633917
    x1        x67         1.4760552126498678
    x1        x68         -1.666236044758949
    x1        x69         2.4401206512944174
    x1        x70         1.9593874957824462
    x1        x71         -0.71618766214142005
    x1        x72         -0.8785778500070005
    x1        x73         0.89974367358595797
    x1        x74         1.2789537284747323
    x1        x75         0.35693291767085417
    x1        x76         0.86229187447821631
    x1        x77         3.4186848584699008
    x1        x78         -0.12963421803078518
    x1        x79         -0.39321573861598358
    x1        x80         1.1880911859883794
    x1        x81         1.4544987612922937
    x1        x82         -0.6154069602410025
    x1        x83         -0.9425322110582981
    x1        x84         0.48234552247900619
    x1        x85         -0.85592879538139444
    x1        x86         -0.14840275151918586
    x1        x87         -1.0485961852557972
    x1        x88         -0.14833043485970965
    x1        x89         1.6436056694097094
    x1        x90         -1.4083442706627356
    x1        x91         -1.9811649570825076
    x1        x92         0.81537270767724834
    x1        x93         2.8488190132061875
    x1        x94         -1.3816528270934607
    x1        x95         0.89691575317184091
    x1        x96         2.2061299585114562
    x1        x97         -1.8297309131664807
    x1        x98         1.559855474572982
    x1        x99         -1.7583362988422426
    x2        x2         7.2367723762504861
    x2        x3         0.81760256820899546
    x2        x4         1.0086395246164017
    x2        x5         1.3329303990930661
    x2        x6         1.4238297021732358
    x2        x7         -0.10695981843327826
    x2        x8         0.62204843285638678
    x2        x9         0.33354666094846019
    x2        x10         0.34414431282815539
    x2        x11         1.3580325212081723
    x2        x12         0.21124899453980914
    x2        x13         1.2018655793194171
    x2        x14         0.41013957587920141
    x2        x15         1.2152800165504121
    x2        x16         -0.30348595392230526
    x2        x17         -0.29373252299422759
    x2        x18         0.86762555154021848
    x2        x19         -1.8017718675509027
    x2        x20         -1.512315635646498
    x2        x21         -1.3980278883002495
    x2        x22         -0.10057410088574721
    x2        x23         0.49438808980613591
    x2        x24         -0.87264800090661021
    x2        x25         1.0351488753296318
    x2        x26         1.0903565853703483
    x2        x27         -2.0740302945675584
    x2        x28         -0.37857096122265477
    x2        x29         2.0022690160208398
    x2        x30         0.71498459100267753
    x2        x31         1.0335771784694281
    x2        x32         0.42742274329853491
    x2        x33         -0.009868708157541135
    x2        x34         0.62656235456014531
    x2        x35         1.0957240042901402
    x2        x36         -2.3589820751376021
    x2        x37         -0.59120136663019174
    x2        x38         1.6546873615320385
    x2        x39         0.54759221373375255
    x2        x40         -2.1313760029185751
    x2        x41         -1.873340253572461
    x2        x42         2.2841587584241845
    x2        x43         -0.63820203914449891
    x2        x44         -0.69598553319704248
    x2        x45         2.7457778272232654
    x2        x46         -0.26207500286499896
    x2        x47         2.1487347080085808
    x2        x48         0.6737479870849622
    x2        x49         -1.0373368409434589
    x2        x50         1.6813184942960788
    x2        x51         0.91405581477271824
    x2        x52         0.057412274471853306
    x2        x53         -2.8349374804958067
    x2        x54         1.218126764377774
    x2        x55         0.13977320510637078
    x2        x56         -0.19726210904438868
    x2        x57         -2.4925506867491012
    x2        x58         2.2670796066049643
    x2        x59         -0.51999298235725755
    x2        x60         -0.84177914225701511
    x2        x61         0.44450461285347609
    x2        x62         -0.65697129976470969
    x2        x63         -3.2237375882577997
    x2        x64         -1.0759247395242755
    x2        x65         3.0493264099404342
    x2        x66         -1.0996271637885981
    x2        x67         -1.7777977497058735
    x2        x68         -0.63904212108226743
    x2        x69         -1.5806119753857049
    x2        x70         0.026907158928415942
    x2        x71         0.98726803395022233
    x2        x72         -0.73333892742141116
    x2        x73         -0.10143117797087488
    x2        x74         0.6380734660828572
    x2        x75         -0.10868809478840281
    x2        x76         1.9369097282906413
    x2        x77         0.92770501707888409
    x2        x78         -1.2130766204386323
    x2        x79         -1.4224760497144289
    x2        x80         -1.4873140802861384
    x2        x81         -0.42976307269906544
    x2        x82         1.2281122421905
    x2        x83         -0.16728946817611451
    x2        x84         1.4082011938144441
    x2        x85         -0.64060935674452635
    x2        x86         0.15716238764108195
    x2        x87         0.00016984322676397135
    x2        x88         -2.7047452395779663
    x2        x89         3.8639867458269705
    x2        x90         1.1653231502678594
    x2        x91         0.92669471121292457
    x2        x92         -1.0315278392100202
    x2        x93         2.1152752526065743
    x2        x94         -0.90826099174552055
    x2        x95         -2.0430629179117781
    x2        x96         0.62821240286897417
    x2        x97         0.37670758340989452
    x2        x98         -0.015162309739350094
    x2        x99         1.7222698155532039
    x3        x3         7.9516432560660029
    x3        x4         2.7867217500895207
    x3        x5         -0.33596684397679161
    x3        x6         -1.4533909837656418
    x3        x7         -2.3321944520248588
    x3        x8         -1.2958042578405045
    x3        x9         2.867065852879437
    x3        x10         -0.29789013863579961
    x3        x11         -1.0030842813466401
    x3        x12         0.10701282895115405
    x3        x13         -0.51850489243523179
    x3        x14         0.13873231449273982
    x3        x15         -0.15252463890209042
    x3        x16         1.0963067926095762
    x3        x17         -0.065801729173054185
    x3        x18         1.6926800481512609
    x3        x19         -2.0777101396914781
    x3        x20         -2.1163547050486624
    x3        x21         0.28316451436433621
    x3        x22         2.2625952953359714
    x3        x23         1.8243599753862905
    x3        x24         0.099591003330029446
    x3        x25         0.76756130816054069
    x3        x26         -2.013832639455555
    x3        x27         -1.1582178118287241
    x3        x28         -2.3053771652162349
    x3        x29         0.50843904230230574
    x3        x30         0.45193496331530658
    x3        x31         -0.34081729940588634
    x3        x32         -0.54176485147102049
    x3        x33         1.9561564508665568
    x3        x34         0.098927372912099756
    x3        x35         -1.1030012484128533
    x3        x36         1.6458851688612925
    x3        x37         1.3954466134226238
    x3        x38         -0.84352534344508168
    x3        x39         1.3663254678790129
    x3        x40         -1.3526788490306489
    x3        x41         -2.529846142172437
    x3        x42         3.3374966969643047
    x3        x43         -0.22485644817572381
    x3        x44         -1.4601490978662823
    x3        x45         0.18677503752804211
    x3        x46         -0.86080338392664713
    x3        x47         2.2549066702420557
    x3        x48         -0.24980809352414993
    x3        x49         2.4435865586000611
    x3        x50         -2.0168487248116524
    x3        x51         0.24263748836398255
    x3        x52         2.5203423615048832
    x3        x53         0.67110222525524799
    x3        x54         -3.2204675031303682
    x3        x55         2.3570775476245185
    x3        x56         1.0261808517300091
    x3        x57         -1.2917777173438931
    x3        x58         0.58701957596355925
    x3        x59         0.32173738549812675
    x3        x60         2.3899227063014328
    x3        x61         1.6712838837469552
    x3        x62         -1.0161765612308844
    x3        x63         -0.28447175341139991
    x3        x64         -1.9647981823312692
    x3        x65         1.6598270334681868
    x3        x66         -1.6001694529287749
    x3        x67         -0.43950629932108959
    x3        x68         -0.48928640333535861
    x3        x69         0.16778267057013255
    x3        x70         -0.0012215514103016299
    x3        x71         0.85969106572571585
    x3        x72         -2.3404240790121222
    x3        x73         0.25754518311963037
    x3        x74         3.0812429387722791
    x3        x75         -1.2799082804571322
    x3        x76         2.119600465664651
    x3        x77         2.3004266270310465
    x3        x78         -1.1256931802074146
    x3        x79         0.15058656885915062
    x3        x80         0.10470746302168191
    x3        x81         0.78851341573900968
    x3        x82         -1.5339340965038391
    x3        x83         -1.2075643117757817
    x3        x84         -0.41028218595073679
    x3        x85         -0.65996454309269537
    x3        x86         -1.1250594885732008
    x3        x87         -1.0719819638640564
    x3        x88         -1.9571719257527063
    x3        x89         3.3566522879284144
    x3        x90         -0.68685546289179189
    x3        x91         -1.6202618672745881
    x3        x92         -1.6271095396660935
    x3        x93         3.1680478059930057
    x3        x94         -1.1144587462871478
    x3        x95         -2.5096404214318806
    x3        x96         3.4014242056331025
    x3        x97         -1.5114952324465187
    x3        x98         -0.76665711388983948
    x3        x99         -0.098484849384148837
    x4        x4         9.5910323992521604
    x4        x5         1.8856930146320512
    x4        x6         -2.8740456539761574
    x4        x7         -1.1982777814934855
    x4        x8         -2.2745768032553793
    x4        x9         2.7385038376550184
    x4        x10         3.1500236897020182
    x4        x11         0.92943531793318279
    x4        x12         -1.6320763463970602
    x4        x13         -3.1743168666994692
    x4        x14         -0.72132698775843074
    x4        x15         0.58182475651871057
    x4        x16         -2.7858308310853639
    x4        x17         2.0970359578248856
    x4        x18         2.0543006617574049
    x4        x19         -3.6515263103521187
    x4        x20         -0.7250445156255918
    x4        x21         -0.18019069693202416
    x4        x22         0.23584425261270056
    x4        x23         -1.1907323822790932
    x4        x24         1.1700775128300585
    x4        x25         -2.1613407911351388
    x4        x26         0.11274874321783804
    x4        x27         -1.6910841882507812
    x4        x28         -0.69669934144530299
    x4        x29         -0.2880624061926792
    x4        x30         -0.94559787328295986
    x4        x31         0.29417692170582016
    x4        x32         -0.42154978650748565
    x4        x33         -1.0384169176154592
    x4        x34         4.5105355117612884
    x4        x35         -1.6197416976723287
    x4        x36         0.2632449435808677
    x4        x37         -0.054306713597326063
    x4        x38         0.49364991696379368
    x4        x39         0.14306609596502246
    x4        x40         -0.90142321078730747
    x4        x41         -0.90062848003349305
    x4        x42         2.0977235062871893
    x4        x43         0.39438943355899714
    x4        x44         -3.049980965662304
    x4        x45         1.7083837146897825
    x4        x46         -0.35988653115504182
    x4        x47         0.45502039141701089
    x4        x48         2.3855385277774444
    x4        x49         -0.24743764065040086
    x4        x50         -3.2900972845017922
    x4        x51         2.2697518578086617
    x4        x52         0.93013559684575919
    x4        x53         0.26154918574137037
    x4        x54         2.0002913305449854
    x4        x55         1.5923641420406243
    x4        x56         -2.495364001897562
    x4        x57         0.63151904389484348
    x4        x58         -0.58534985637146364
    x4        x59         -0.88196826813778229
    x4        x60         3.4636739237580141
    x4        x61         0.86099757142639177
    x4        x62         -2.8432815246183827
    x4        x63         -2.6477640005175878
    x4        x64         -2.3129609708860173
    x4        x65         1.603663336800931
    x4        x66         0.052690472492519243
    x4        x67         0.93135187456732405
    x4        x68         1.5362657307467
    x4        x69         0.33838988474186477
    x4        x70         4.0255388899386348
    x4        x71         0.13167465603461856
    x4        x72         -0.82918573467900103
    x4        x73         2.1735049166010718
    x4        x74         1.807833682786387
    x4        x75         1.4134521910151268
    x4        x76         -0.064365445182512054
    x4        x77         2.0278129671201932
    x4        x78         -0.90015769784594357
    x4        x79         0.2320747997819626
    x4        x80         1.5591926893125578
    x4        x81         -0.92253129987764126
    x4        x82         -1.8182331254563739
    x4        x83         0.23652443711948362
    x4        x84         0.76719129814725373
    x4        x85         -0.82179727648551959
    x4        x86         0.78564276166588043
    x4        x87         -1.238813999668126
    x4        x88         -1.3021579139653592
    x4        x89         3.583637653564697
    x4        x90         0.062063695288261403
    x4        x91         0.05612480900380503
    x4        x92         -0.87761657551635208
    x4        x93         1.0179912843511361
    x4        x94         -1.7472641929361081
    x4        x95         -1.9488716523633964
    x4        x96         4.1756327886702325
    x4        x97         1.3851266816407819
    x4        x98         -3.3771636719905018
    x4        x99         -1.3307145100834705
    x5        x5         7.2035868372597749
    x5        x6         0.33380430505536279
    x5        x7         -0.051200226465180645
    x5        x8         -0.77037097430807855
    x5        x9         -1.8588252500750804
    x5        x10         -0.28107038669156686
    x5        x11         0.28362405611822156
    x5        x12         0.0085527579499888769
    x5        x13         -0.90794505271608994
    x5        x14         -0.079744000158668615
    x5        x15         2.2277503627590107
    x5        x16         0.10159771329180743
    x5        x17         -0.26196927382287333
    x5        x18         1.7889646633252081
    x5        x19         -1.7812330958713305
    x5        x20         -1.482436186273324
    x5        x21         -2.8618520147147781
    x5        x22         0.32600649128933745
    x5        x23         -0.19401511547207007
    x5        x24         -0.84587106840630522
    x5        x25         0.54403294300296012
    x5        x26         0.84653936724007894
    x5        x27         -0.89579923629269176
    x5        x28         -1.5114844205677911
    x5        x29         -1.2023165214608553
    x5        x30         -1.5091618624313541
    x5        x31         -0.4489300958029715
    x5        x32         1.128228797091239
    x5        x33         0.60734989812790519
    x5        x34         2.2147728319098534
    x5        x35         -1.1108436737681318
    x5        x36         0.16565037998286969
    x5        x37         0.87474145449398011
    x5        x38         -1.5292662666002488
    x5        x39         0.34473646227425503
    x5        x40         1.0222196424887102
    x5        x41         0.77182773294882612
    x5        x42         0.54929903683327486
    x5        x43         1.092359836041535
    x5        x44         -0.69035423718676148
    x5        x45         0.98421910685071035
    x5        x46         -2.5240570998713219
    x5        x47         -0.24510775409530916
    x5        x48         1.3968276905494756
    x5        x49         -2.2734228956848237
    x5        x50         0.51962220138834947
    x5        x51         0.44315093103397196
    x5        x52         1.3461082634113151
    x5        x53         0.31919071548192174
    x5        x54         0.39768448473323614
    x5        x55         -0.308465608389973
    x5        x56         -4.3670432062990061
    x5        x57         -0.017680554974709287
    x5        x58         0.11655692949967943
    x5        x59         -0.18855757761734357
    x5        x60         -2.5351902192750582
    x5        x61         0.79304652725800939
    x5        x62         -0.32581741947361953
    x5        x63         -3.7280083737863414
    x5        x64         1.6551353703707694
    x5        x65         1.2626117451093799
    x5        x66         -2.181598870684216
    x5        x67         -2.0764183710970192
    x5        x68         2.6868146342521011
    x5        x69         -2.3934126656201533
    x5        x70         -0.37205891456295281
    x5        x71         -0.82470114354089974
    x5        x72         -1.1219684089353854
    x5        x73         1.5120861836082511
    x5        x74         -0.045651577654263656
    x5        x75         0.89127729315810011
    x5        x76         0.98507955619919318
    x5        x77         -0.59604991333587465
    x5        x78         0.91423990242265885
    x5        x79         0.26439121743540733
    x5        x80         0.54353526722289602
    x5        x81         0.41415229685739524
    x5        x82         -0.31290602414150498
    x5        x83         -0.077964677509525626
    x5        x84         0.49050612269923183
    x5        x85         1.3192213476619092
    x5        x86         -2.1377905611709265
    x5        x87         1.5152612909673786
    x5        x88         -1.4272117725562845
    x5        x89         1.1454990306192565
    x5        x90         2.5082814169011298
    x5        x91         0.40770012096312502
    x5        x92         -0.030689511898701255
    x5        x93         0.92375291269407955
    x5        x94         -0.65612175369627435
    x5        x95         0.17774595808530996
    x5        x96         -0.034142720711832768
    x5        x97         0.47577209032942025
    x5        x98         -1.3654700934804913
    x5        x99         3.7106971509443234
    x6        x6         7.6466960153907131
    x6        x7         0.35968680664761887
    x6        x8         -0.7503546856881903
    x6        x9         -1.5326497064204818
    x6        x10         -1.6920428499596136
    x6        x11         0.15822118338655375
    x6        x12         1.218392161852597
    x6        x13         0.5193098287426785
    x6        x14         -0.72857520981041823
    x6        x15         -0.64132282635863669
    x6        x16         -0.10417602927523462
    x6        x17         -1.249413853602251
    x6        x18         -0.73645559290212814
    x6        x19         0.98164106403433637
    x6        x20         -1.826318270806534
    x6        x21         -1.2312362135568191
    x6        x22         -1.6940053933081407
    x6        x23         -0.28220165090821592
    x6        x24         -1.0707941990159326
    x6        x25         3.1073450870230723
    x6        x26         -0.32323388019387067
    x6        x27         2.3076086275300378
    x6        x28         -1.1704835748920372
    x6        x29         -0.21097706318760343
    x6        x30         -1.6524844131705243
    x6        x31         0.27729111314349253
    x6        x32         0.52708188368914799
    x6        x33         -0.50262991509155674
    x6        x34         -2.9822120496983322
    x6        x35         0.55011803886253829
    x6        x36         -0.26647242584294051
    x6        x37         -1.9327814744731158
    x6        x38         0.81668763177058656
    x6        x39         1.2290026632961673
    x6        x40         -3.1133840346952413
    x6        x41         0.29579367645881166
    x6        x42         1.4835913146536064
    x6        x43         -0.42607290736136605
    x6        x44         2.7525951593437687
    x6        x45         -1.2539289296741138
    x6        x46         0.10997123898068512
    x6        x47         -0.83069334495779745
    x6        x48         -0.26985516920458569
    x6        x49         0.23247700898756152
    x6        x50         0.45749965265032511
    x6        x51         -0.46261947152234989
    x6        x52         0.67311657886101695
    x6        x53         -0.28659904577746864
    x6        x54         1.1160548203838259
    x6        x55         0.79961088536940872
    x6        x56         -1.3994360170877203
    x6        x57         -1.4300294146489261
    x6        x58         -0.63240551039756465
    x6        x59         2.7954280354280416
    x6        x60         -2.8919483107542758
    x6        x61         0.033481612245546591
    x6        x62         -0.7448710898041021
    x6        x63         0.19231371348774004
    x6        x64         0.49328810990261257
    x6        x65         1.3272612233003691
    x6        x66         -0.3825171788564653
    x6        x67         -1.1692776295170817
    x6        x68         -0.63675415108189304
    x6        x69         -1.3588997823734297
    x6        x70         -1.4686944422555885
    x6        x71         0.67871514286892054
    x6        x72         -0.015627129016507139
    x6        x73         -2.517768001721536
    x6        x74         -2.6831385424459659
    x6        x75         -0.47778626983634476
    x6        x76         3.7385893146186664
    x6        x77         -1.100617646166042
    x6        x78         -0.70684989163959544
    x6        x79         0.33256134955052891
    x6        x80         -2.9605367788132755
    x6        x81         0.51028073761324111
    x6        x82         3.7070047863069129
    x6        x83         0.34804901829807933
    x6        x84         1.4608159536658274
    x6        x85         3.4503815255425119
    x6        x86         0.60104807754760592
    x6        x87         0.81446384313984899
    x6        x88         2.9114682662577178
    x6        x89         0.67443884519767938
    x6        x90         -0.42892000948205222
    x6        x91         1.1589199921460152
    x6        x92         1.593040713790657
    x6        x93         0.99010847828691417
    x6        x94         0.39076263743065415
    x6        x95         2.0027854647991741
    x6        x96         -1.4327521721231222
    x6        x97         0.25034051940052099
    x6        x98         0.46585357561123691
    x6        x99         5.2582053406729843
    x7        x7         6.0272413004958754
    x7        x8         1.4366845076710482
    x7        x9         -0.19326220051136941
    x7        x10         0.24798612507451465
    x7        x11         1.1247672064899272
    x7        x12         0.40351681980335025
    x7        x13         0.11275046877255959
    x7        x14         1.1074131361323705
    x7        x15         1.648349014371463
    x7        x16         -0.82635917486126387
    x7        x17         1.5896683644463379
    x7        x18         -0.067372742224420842
    x7        x19         0.5833058421362235
    x7        x20         0.00191717917431547
    x7        x21         0.099731115451359806
    x7        x22         -4.0857503037076217
    x7        x23         -0.77482465657417066
    x7        x24         1.3381776446498248
    x7        x25         0.89942465213793865
    x7        x26         1.2983202029776213
    x7        x27         0.93585763622780804
    x7        x28         1.7387694938159624
    x7        x29         2.2579238510507667
    x7        x30         1.6398457504743793
    x7        x31         -1.4730812932009021
    x7        x32         1.3177216821186206
    x7        x33         -1.7780989888807206
    x7        x34         -0.92696933021301497
    x7        x35         2.1628857096787391
    x7        x36         0.41122248989546184
    x7        x37         0.69597468509991167
    x7        x38         -1.4406636641184076
    x7        x39         -0.71005013104226467
    x7        x40         0.96189366013235489
    x7        x41         1.1060978936068611
    x7        x42         -3.9445288426395217
    x7        x43         0.30350370627104661
    x7        x44         0.99753063043395995
    x7        x45         -1.9381754126762045
    x7        x46         2.4267564611727561
    x7        x47         -0.17877982674986112
    x7        x48         -1.2600903804701624
    x7        x49         -1.3043523537349289
    x7        x50         0.43609892144107176
    x7        x51         -0.6822723933893341
    x7        x52         -0.29883135869566413
    x7        x53         -0.54258803011079115
    x7        x54         0.42672620260635258
    x7        x55         -1.2153427109383348
    x7        x56         -0.68028213965724382
    x7        x57         3.1547647954141578
    x7        x58         -0.96682585018376344
    x7        x59         0.17054939052712823
    x7        x60         -0.089724827125491
    x7        x61         -2.2632685280795788
    x7        x62         -0.21327262466945937
    x7        x63         -0.36686367438065132
    x7        x64         2.2256521901111355
    x7        x65         -1.5714013155394724
    x7        x66         1.5229629026250908
    x7        x67         1.1102529470676565
    x7        x68         -0.50878927763142467
    x7        x69         0.40620713359510024
    x7        x70         -0.26436833368226992
    x7        x71         -2.3714780112235969
    x7        x72         -1.6341913838747164
    x7        x73         0.09387400481077976
    x7        x74         -3.1729730371462024
    x7        x75         -0.39956229479304506
    x7        x76         -0.77787635378584374
    x7        x77         0.69848527000510052
    x7        x78         -0.60439472662830573
    x7        x79         -1.5344035423027487
    x7        x80         0.73447622927361345
    x7        x81         1.0568505710900846
    x7        x82         0.9009641097656067
    x7        x83         0.77654424795192167
    x7        x84         -0.18203996400203037
    x7        x85         0.084078025273779777
    x7        x86         1.4502108866060928
    x7        x87         1.535312160104781
    x7        x88         1.7788861684587502
    x7        x89         -1.0300571687709856
    x7        x90         -0.84061983405959506
    x7        x91         -0.73616844522111125
    x7        x92         0.40595805371683424
    x7        x93         -0.8149307815749004
    x7        x94         -1.946115865432581
    x7        x95         1.0838860032671391
    x7        x96         0.79607595504839135
    x7        x97         -0.43238815774335587
    x7        x98         -0.042738655179094732
    x7        x99         -0.47986312236384432
    x8        x8         7.4575961090280227
    x8        x9         -1.5208811090055461
    x8        x10         0.46694766840344376
    x8        x11         -0.68691782809415614
    x8        x12         0.47444280833267016
    x8        x13         0.60584475822041617
    x8        x14         -0.59629410513522496
    x8        x15         -2.7823147971990809
    x8        x16         -2.0062002710882827
    x8        x17         0.51976992059203853
    x8        x18         0.075307895767961569
    x8        x19         0.73548795639238973
    x8        x20         -0.24475009246127749
    x8        x21         1.0977570642819643
    x8        x22         -0.31125722643686704
    x8        x23         1.8907785813898028
    x8        x24         -0.87857633207143582
    x8        x25         1.6688902883271053
    x8        x26         0.98478555333558315
    x8        x27         1.0943223748331432
    x8        x28         2.5918156249102569
    x8        x29         2.9698469930714397
    x8        x30         3.3726061373638316
    x8        x31         2.1556684398534811
    x8        x32         -0.33469534693029235
    x8        x33         -0.11275833177290898
    x8        x34         -1.1334284840057209
    x8        x35         -0.48173763283050824
    x8        x36         0.77176644484326307
    x8        x37         0.61907171001378447
    x8        x38         -1.2475861598646043
    x8        x39         1.0449650747642312
    x8        x40         3.4240986983160289
    x8        x41         0.58620946508737071
    x8        x42         0.46652630261049249
    x8        x43         0.015163310714822709
    x8        x44         -1.3085737816748604
    x8        x45         -0.35400109651716866
    x8        x46         0.30339028896563858
    x8        x47         0.26799688958283535
    x8        x48         -1.1963123294264395
    x8        x49         -0.29793182359563808
    x8        x50         1.6629791995733516
    x8        x51         -1.8925325198951259
    x8        x52         -0.29360958698239276
    x8        x53         -0.64841465874119286
    x8        x54         -0.29686335542659914
    x8        x55         0.24752231489430526
    x8        x56         1.0494389333604397
    x8        x57         -1.1053850709411182
    x8        x58         1.9537954694964725
    x8        x59         -0.010842856910365063
    x8        x60         0.70812072371291801
    x8        x61         -1.0666378434967057
    x8        x62         2.7841510001093819
    x8        x63         -0.25031097725888157
    x8        x64         1.3826189876921497
    x8        x65         0.034000658941964051
    x8        x66         0.13365859628520313
    x8        x67         -1.5574344587005393
    x8        x68         -0.67706810359888436
    x8        x69         1.0974801098245635
    x8        x70         -1.8168308251745273
    x8        x71         0.410211470160045
    x8        x72         0.054560294734669355
    x8        x73         1.0004477919622079
    x8        x74         -3.0441759693579766
    x8        x75         -1.9051802907385351
    x8        x76         -1.5591614969375689
    x8        x77         0.0027507232554930816
    x8        x78         -0.035106458578811922
    x8        x79         -1.5262797922410802
    x8        x80         1.3991492534393346
    x8        x81         2.2047996871678581
    x8        x82         0.52441356061430811
    x8        x83         2.0782004944864734
    x8        x84         -0.56539852542871372
    x8        x85         -2.1399570830403367
    x8        x86         1.0903856530410916
    x8        x87         0.64907907434529288
    x8        x88         -0.93162151525027992
    x8        x89         -1.121877162013811
    x8        x90         -1.0784984559325921
    x8        x91         1.7752259554188308
    x8        x92         -0.47867295535482179
    x8        x93         0.90117192217820263
    x8        x94         0.4536409581005274
    x8        x95         0.70458246485533771
    x8        x96         0.72108815218462063
    x8        x97         -0.89900609068608262
    x8        x98         0.1148331924010615
    x8        x99         -3.2501526412747217
    x9        x9         8.2044426528100463
    x9        x10         -0.68568006950351512
    x9        x11         1.3816789596531771
    x9        x12         -2.2598641789455831
    x9        x13         -0.044248129551457183
    x9        x14         1.2750698159952929
    x9        x15         0.49918104702275984
    x9        x16         -0.24310172965669971
    x9        x17         3.4433495094850524
    x9        x18         3.0100575610551346
    x9        x19         -0.007557657832462145
    x9        x20         0.49397503185260089
    x9        x21         2.0762562645442069
    x9        x22         -2.8956347064514425
    x9        x23         0.34416225131222117
    x9        x24         1.4478802666474517
    x9        x25         -0.67527381096132633
    x9        x26         1.7106872662824599
    x9        x27         -1.1314391208793286
    x9        x28         -1.4763983018556261
    x9        x29         0.21547641781864701
    x9        x30         3.1455175961715791
    x9        x31         -1.0194885261293403
    x9        x32         0.94655987989669621
    x9        x33         -2.5510318640006395
    x9        x34         0.82965228684115833
    x9        x35         0.52076162387967995
    x9        x36         1.0205254960045598
    x9        x37         -1.6194389232269648
    x9        x38         1.4549724568630222
    x9        x39         1.7654995146044477
    x9        x40         -2.2008563957014884
    x9        x41         -2.951008753910064
    x9        x42         1.0503074399002006
    x9        x43         -0.72222688412658576
    x9        x44         -0.48496318564594831
    x9        x45         -0.48106164064993473
    x9        x46         0.97973797445319466
    x9        x47         1.9443254432435197
    x9        x48         -1.2903885844927971
    x9        x49         3.2228852456026145
    x9        x50         -2.0900916076703613
    x9        x51         3.4140260420092368
    x9        x52         1.9961450604387954
    x9        x53         -0.64812101629935659
    x9        x54         -1.5468296836483229
    x9        x55         -0.6087205419611823
    x9        x56         -0.040382245345222188
    x9        x57         -0.40581318064025168
    x9        x58         1.0544128590538686
    x9        x59         -2.2501756652703562
    x9        x60         1.2418078625343143
    x9        x61         -0.074532040857986606
    x9        x62         -0.11140685634407979
    x9        x63         0.39474268806905927
    x9        x64         -2.5888526968190191
    x9        x65         0.39906529918661737
    x9        x66         -3.5154392151701912
    x9        x67         1.3670280194347337
    x9        x68         0.057263769589170364
    x9        x69         1.0009175212535211
    x9        x70         3.6726637095978489
    x9        x71         -1.3096750355611015
    x9        x72         -0.46153313475821806
    x9        x73         -0.58934157328384429
    x9        x74         1.1180005895219143
    x9        x75         0.65715025720957732
    x9        x76         -0.18036693967929451
    x9        x77         3.1822248566060392
    x9        x78         1.4436413566902071
    x9        x79         0.50022940807927196
    x9        x80         0.67434575737404789
    x9        x81         0.72445770280875188
    x9        x82         -0.054049135566491442
    x9        x83         -1.062956855271991
    x9        x84         -2.1208522637706313
    x9        x85         0.024321896879755171
    x9        x86         0.88533398435963062
    x9        x87         -0.89095347726766783
    x9        x88         -0.28581417681264926
    x9        x89         -0.17826257535770601
    x9        x90         0.35366645476752845
    x9        x91         -3.3941629324483964
    x9        x92         1.5040663817152562
    x9        x93         2.3595869365948414
    x9        x94         -1.3649758749135443
    x9        x95         -1.7260198077659892
    x9        x96         3.1543730022687719
    x9        x97         -0.81053822557628319
    x9        x98         -0.74815488265077645
    x9        x99         -1.6829354213344165
    x10        x10         7.1335567291525583
    x10        x11         2.5482099914623224
    x10        x12         -1.0633513393822478
    x10        x13         -2.3580111212668902
    x10        x14         -1.5864866206941914
    x10        x15         0.55588461077647844
    x10        x16         -3.0409236313397709
    x10        x17         0.2783246808167712
    x10        x18         0.43032182424379672
    x10        x19         -0.68087279144834345
    x10        x20         -1.4538880950600979
    x10        x21         1.3189897899651026
    x10        x22         0.95790931868009355
    x10        x23         -1.3121311472203148
    x10        x24         -1.1411382362722293
    x10        x25         -3.0198524874511392
    x10        x26         -0.64077759414919611
    x10        x27         1.6013487199698786
    x10        x28         -0.57080232810317499
    x10        x29         0.037309845322796312
    x10        x30         0.33615178314125516
    x10        x31         0.44989938715796979
    x10        x32         -1.8032605161456281
    x10        x33         0.40227580471024632
    x10        x34         0.92149269171944559
    x10        x35         -1.733710670344532
    x10        x36         -0.28448887799845535
    x10        x37         0.28189127430067956
    x10        x38         0.19648376161431305
    x10        x39         -1.4950730896219706
    x10        x40         0.012324862273874511
    x10        x41         0.16224807819296552
    x10        x42         -0.16586687567982181
    x10        x43         -0.40092867873648635
    x10        x44         -1.1269159635463197
    x10        x45         1.7186640088306162
    x10        x46         -0.2429595166223337
    x10        x47         0.4447462563321018
    x10        x48         -0.75133999263543294
    x10        x49         -1.5105792502919082
    x10        x50         -2.4134515337424243
    x10        x51         -2.1518293069540917
    x10        x52         -1.1004474834070934
    x10        x53         0.9164935053895038
    x10        x54         2.7494499451190877
    x10        x55         1.4092507349308983
    x10        x56         0.33692937927619332
    x10        x57         0.50826378935593186
    x10        x58         -1.5226758501568807
    x10        x59         1.411339038292166
    x10        x60         1.7217247963860176
    x10        x61         -1.2697785629354128
    x10        x62         -2.6974935480185809
    x10        x63         0.61567352163809286
    x10        x64         -0.2516990104747367
    x10        x65         -0.16571266997225462
    x10        x66         2.2659038165436352
    x10        x67         2.7015310965593811
    x10        x68         -1.6974009106402113
    x10        x69         1.0791253736939102
    x10        x70         2.0429642286205913
    x10        x71         1.4417033597155013
    x10        x72         1.2570699988717007
    x10        x73         -1.4340293235724826
    x10        x74         0.50125579905443063
    x10        x75         1.0913800761373029
    x10        x76         -1.8539937550557943
    x10        x77         -1.4225868358713478
    x10        x78         -1.1465898869433309
    x10        x79         -0.98381495772052907
    x10        x80         1.2880648289293033
    x10        x81         -0.20300063712030392
    x10        x82         -1.8395213195285494
    x10        x83         0.19864321702316645
    x10        x84         0.196096208972981
    x10        x85         -0.83982451273692993
    x10        x86         1.2189195375367274
    x10        x87         -1.70396963016669
    x10        x88         -0.23317506505644259
    x10        x89         1.9516575893778225
    x10        x90         0.9329153631972209
    x10        x91         1.572855189468559
    x10        x92         -3.1619772107601696
    x10        x93         -2.118857150138719
    x10        x94         0.31556844247970517
    x10        x95         -0.63007800475114761
    x10        x96         0.27875104516018423
    x10        x97         -0.4914586568432075
    x10        x98         -0.1112572919229807
    x10        x99         -1.1263931912937892
    x11        x11         6.998046616929317
    x11        x12         -0.72785941393383535
    x11        x13         0.55892518892936027
    x11        x14         0.91225597493776367
    x11        x15         0.7188532878976579
    x11        x16         -1.8641133315173242
    x11        x17         0.42661460150159408
    x11        x18         4.0228708073235868
    x11        x19         0.77524364174659255
    x11        x20         -0.5614262876214352
    x11        x21         -0.218105225125243
    x11        x22         -0.58714088877854076
    x11        x23         -2.1500358629898546
    x11        x24         -1.9614224358024954
    x11        x25         -0.72046954310832723
    x11        x26         1.449154982831625
    x11        x27         -0.40900709201046376
    x11        x28         -0.51967365619105133
    x11        x29         -0.3537188481566737
    x11        x30         0.10764948807365399
    x11        x31         -0.68019581216063385
    x11        x32         1.6547425589367999
    x11        x33         -1.3324869767703016
    x11        x34         2.0720656583131252
    x11        x35         -0.4007594146503638
    x11        x36         -0.036331359818226612
    x11        x37         -1.6378628433956777
    x11        x38         1.4361393725965541
    x11        x39         -1.5174857432033975
    x11        x40         -0.87550363037537182
    x11        x41         -1.9321257185019607
    x11        x42         -2.1498736320534526
    x11        x43         -1.1447376240049427
    x11        x44         1.1989449701843704
    x11        x45         1.5523479854093971
    x11        x46         -1.6115383434556796
    x11        x47         -0.2102438718387355
    x11        x48         -0.99384133025511445
    x11        x49         -1.2658233534121714
    x11        x50         -0.46888990300080857
    x11        x51         -0.050611043530232158
    x11        x52         -0.85361459857127042
    x11        x53         -1.0557103806060046
    x11        x54         3.3208878158731117
    x11        x55         -3.6620843234174965
    x11        x56         -0.38958414406679215
    x11        x57         -0.37444971384236198
    x11        x58         -0.9623347013621717
    x11        x59         1.5145431697913894
    x11        x60         -0.81989037503534801
    x11        x61         -2.323031395253873
    x11        x62         -2.0692624449749752
    x11        x63         -0.53952363100994982
    x11        x64         0.1181396545052588
    x11        x65         0.78862183849758927
    x11        x66         -0.31935269699783375
    x11        x67         1.7460408869134096
    x11        x68         -3.649511687953888
    x11        x69         1.4965391527685825
    x11        x70         1.2315899487169992
    x11        x71         1.7105907008885706
    x11        x72         1.3639429093310858
    x11        x73         -1.6968412902516803
    x11        x74         1.0703650194015484
    x11        x75         0.20401266070608332
    x11        x76         1.0383360992801209
    x11        x77         1.0871072949210463
    x11        x78         0.67501322925580054
    x11        x79         -0.25080727223755561
    x11        x80         1.6735395639050101
    x11        x81         1.0694194355162294
    x11        x82         1.0499639094701814
    x11        x83         -0.99087505974154211
    x11        x84         -1.8901973386601516
    x11        x85         2.3075818837720581
    x11        x86         1.1049537192213068
    x11        x87         -0.39834381144005948
    x11        x88         -1.41921779813674
    x11        x89         0.9057069953782223
    x11        x90         3.8304216475441679
    x11        x91         -1.1332799826716684
    x11        x92         1.3143851329201366
    x11        x93         -1.1808155722754154
    x11        x94         -1.415379489105272
    x11        x95         1.1145541738473703
    x11        x96         0.092848583610368671
    x11        x97         -1.2946765085053551
    x11        x98         1.6543312615064716
    x11        x99         0.55179471051868934
    x12        x12         6.0672170798426341
    x12        x13         0.78445688309892003
    x12        x14         0.59653061415174158
    x12        x15         -0.31119451930271025
    x12        x16         2.1976215438754427
    x12        x17         -2.3827122693798857
    x12        x18         0.38209347231078
    x12        x19         -0.21679736527342486
    x12        x20         -1.4066248217062087
    x12        x21         -1.4405412096155061
    x12        x22         0.046244271498072677
    x12        x23         0.50943097794917036
    x12        x24         0.099712330496433035
    x12        x25         1.3598556957799941
    x12        x26         -0.093865705530136345
    x12        x27         0.86708472824518368
    x12        x28         3.0190209039410161
    x12        x29         0.98108082369159644
    x12        x30         -2.1990296781654344
    x12        x31         0.15392267224623463
    x12        x32         1.3042518673405419
    x12        x33         4.1246479352609606
    x12        x34         1.071819056708085
    x12        x35         -0.22149283009431103
    x12        x36         -0.19602242598011119
    x12        x37         -0.028030813659167576
    x12        x38         0.49581490486000529
    x12        x39         1.9667885896545849
    x12        x40         0.36626033757868492
    x12        x41         -0.72690392020345174
    x12        x42         -0.93513260864804093
    x12        x43         -2.3704210425983043
    x12        x44         1.1862329958484641
    x12        x45         -2.7461970454893549
    x12        x46         -0.18216007674404761
    x12        x47         -1.9695269602522019
    x12        x48         -2.311830319196241
    x12        x49         -0.5864480516654178
    x12        x50         2.1905902696787569
    x12        x51         0.96256929500823063
    x12        x52         -2.6147499875684344
    x12        x53         2.3501575548160694
    x12        x54         -1.2945202854649618
    x12        x55         1.4635983791612526
    x12        x56         1.0842751712958996
    x12        x57         0.84839202310834894
    x12        x58         1.3705947661431899
    x12        x59         0.59583445655007461
    x12        x60         -1.0116691878257336
    x12        x61         0.3405963395613717
    x12        x62         1.4971896548475041
    x12        x63         1.7202010290473246
    x12        x64         2.1930955824849678
    x12        x65         -2.1775176533945952
    x12        x66         1.997863918066868
    x12        x67         -0.84440224273000242
    x12        x68         -0.77804479601448706
    x12        x69         -0.68608249257601672
    x12        x70         -1.3079096126414878
    x12        x71         -0.087160698557903801
    x12        x72         -0.71269017660694745
    x12        x73         0.53713136385442284
    x12        x74         -0.36599092840692782
    x12        x75         -1.1523801069630866
    x12        x76         1.9218114321355015
    x12        x77         0.36734416101540801
    x12        x78         0.49424062723627643
    x12        x79         -0.17854324201090693
    x12        x80         0.72721128190996276
    x12        x81         0.44830302738087663
    x12        x82         0.0016118203572838864
    x12        x83         1.3169109600975999
    x12        x84         2.5692350022990356
    x12        x85         0.22327983046932498
    x12        x86         -0.58983953227890751
    x12        x87         -0.42639851220753727
    x12        x88         1.8416534675470868
    x12        x89         0.34320688508938313
    x12        x90         -1.6707984011463126
    x12        x91         1.3037809040374586
    x12        x92         -1.4718221605722159
    x12        x93         1.1895748250728511
    x12        x94         -0.68148826741656876
    x12        x95         0.72097317459789234
    x12        x96         -1.6055141567509872
    x12        x97         -1.4640753821182608
    x12        x98         1.5036265363399859
    x12        x99         0.030800783969612992
    x13        x13         6.3428780270943603
    x13        x14         1.4798130323607335
    x13        x15         -0.82417884175669109
    x13        x16         0.75896298832610398
    x13        x17         -0.61236008795296448
    x13        x18         -0.18497634950775768
    x13        x19         2.2154527687310113
    x13        x20         2.5835228182476886
    x13        x21         -0.9062236965851308
    x13        x22         -0.8373113040146708
    x13        x23         0.28369436280971649
    x13        x24         -0.69156902488451211
    x13        x25         0.0135658261117586
    x13        x26         -0.7362682788749243
    x13        x27         -0.49959123403520173
    x13        x28         1.468406359949318
    x13        x29         -0.9264487467889243
    x13        x30         0.69861325930197948
    x13        x31         0.083455461534463996
    x13        x32         0.74666216286961018
    x13        x33         0.24465088831361537
    x13        x34         0.45028850740683746
    x13        x35         0.84034450044542408
    x13        x36         -1.3251246982864064
    x13        x37         -1.954014123544054
    x13        x38         0.49031853934520375
    x13        x39         -2.4162745774309409
    x13        x40         0.60460439089346263
    x13        x41         -1.4809915073637892
    x13        x42         -1.7287516035667545
    x13        x43         -1.8563149485038959
    x13        x44         0.77744095870941077
    x13        x45         0.25952046152775782
    x13        x46         -0.0099331186094765191
    x13        x47         -1.506217848693568
    x13        x48         0.057208270274804095
    x13        x49         -1.4788164336941052
    x13        x50         1.5505781799928164
    x13        x51         -0.1501335930751958
    x13        x52         -0.1647294672907304
    x13        x53         -0.31474362526309657
    x13        x54         -0.66544008694589751
    x13        x55         -2.1941519728137071
    x13        x56         2.4917287657838112
    x13        x57         -0.92375245942402184
    x13        x58         1.9889599160389331
    x13        x59         1.4685029035121226
    x13        x60         -0.28471936001160469
    x13        x61         -1.3948530636090875
    x13        x62         1.5827868843704089
    x13        x63         -0.21016752687688725
    x13        x64         -0.71205131688793
    x13        x65         -0.29725739843253879
    x13        x66         -0.24407588742395314
    x13        x67         -1.1466688644024934
    x13        x68         -0.46813815375462708
    x13        x69         2.3178180597784745
    x13        x70         -0.38073818401861792
    x13        x71         -0.95897699448796803
    x13        x72         0.4799218671055791
    x13        x73         0.53401238168449228
    x13        x74         1.1889364353341572
    x13        x75         -0.91407948706050546
    x13        x76         0.2726198878733091
    x13        x77         -0.96297404701344125
    x13        x78         0.52635529406361614
    x13        x79         2.344150638046016
    x13        x80         -1.0851449470901338
    x13        x81         0.82865111097501998
    x13        x82         0.71585937304762537
    x13        x83         -1.9184749023392482
    x13        x84         0.56698879203137087
    x13        x85         1.5498540840140707
    x13        x86         -0.81217861833862315
    x13        x87         1.5305703340816976
    x13        x88         -1.6685543786473671
    x13        x89         -1.0748511925575843
    x13        x90         1.1349047721193357
    x13        x91         -1.252300173353222
    x13        x92         2.1105654281865212
    x13        x93         0.75399236857768781
    x13        x94         -1.4183453332245126
    x13        x95         0.14056011260450474
    x13        x96         -0.47474108327449122
    x13        x97         0.43040210110124422
    x13        x98         1.0342987141463291
    x13        x99         -0.68250863580971133
    x14        x14         8.1574488583861324
    x14        x15         0.090223738219605484
    x14        x16         2.1047794735391188
    x14        x17         0.79454985035391645
    x14        x18         2.5267673943541347
    x14        x19         -0.40539900569921861
    x14        x20         1.0355814707004392
    x14        x21         -0.45371521460376668
    x14        x22         0.26711596152690914
    x14        x23         -0.16474392826325027
    x14        x24         1.0869708006345851
    x14        x25         1.4456518045773257
    x14        x26         2.5931992513138753
    x14        x27         0.14808191080153996
    x14        x28         1.5666362595796302
    x14        x29         0.053789124223520918
    x14        x30         0.74843851122072802
    x14        x31         -1.5592689380072338
    x14        x32         1.4387027459104627
    x14        x33         -0.83663736708126168
    x14        x34         0.22489548351193472
    x14        x35         1.5177003245291261
    x14        x36         -0.69841985985599642
    x14        x37         2.0582351011782345
    x14        x38         -1.2877942113054786
    x14        x39         1.0301816869721712
    x14        x40         -1.6309562214182134
    x14        x41         -2.3086043490458636
    x14        x42         -2.7680034565436977
    x14        x43         -1.5370702257042406
    x14        x44         3.4598268900557327
    x14        x45         -0.45450457658666243
    x14        x46         0.83882818712755514
    x14        x47         -0.62903114308889452
    x14        x48         -0.56335378394885383
    x14        x49         1.6566411780250421
    x14        x50         2.6757863117858642
    x14        x51         1.2573624943911417
    x14        x52         -0.20360709225891607
    x14        x53         -3.0384576443206921
    x14        x54         -0.65332712607309273
    x14        x55         -2.5727045447899468
    x14        x56         0.60104658042258163
    x14        x57         1.153509996772393
    x14        x58         1.6790187967537453
    x14        x59         -1.1768979953063909
    x14        x60         0.34272201849897854
    x14        x61         -2.8335217466548599
    x14        x62         1.2302063250426529
    x14        x63         1.5468737103671317
    x14        x64         1.1800746361025189
    x14        x65         -0.66988968970822527
    x14        x66         -0.43228575401162123
    x14        x67         2.1249172112968138
    x14        x68         1.5565567425296112
    x14        x69         3.29525824091023
    x14        x70         0.28591796835653971
    x14        x71         -0.90287556701495375
    x14        x72         -0.72857861034953486
    x14        x73         0.51033829539413367
    x14        x74         -0.4899265468795958
    x14        x75         0.87460308355774918
    x14        x76         0.69721983407596644
    x14        x77         1.4951833729730042
    x14        x78         -0.072013251300759015
    x14        x79         0.84800422227647521
    x14        x80         1.4374633668842602
    x14        x81         -0.22522313611892414
    x14        x82         0.86251841824162634
    x14        x83         -0.74188219018739399
    x14        x84         -0.60044326129375225
    x14        x85         -0.28080917575961489
    x14        x86         -1.6423491759283833
    x14        x87         1.1630878308925621
    x14        x88         0.38111144365358846
    x14        x89         -0.95127086498181013
    x14        x90         1.157435015143679
    x14        x91         -1.9785832303211521
    x14        x92         -0.31318306241675403
    x14        x93         0.39649725883129511
    x14        x94         1.047413285896202
    x14        x95         -1.9833225925126132
    x14        x96         -0.91457556935701678
    x14        x97         -2.4377973876585379
    x14        x98         1.4154703670622777
    x14        x99         -0.10553211027151781
    x15        x15         7.9424368352984152
    x15        x16         0.40939130585059513
    x15        x17         -1.312796150645593
    x15        x18         -1.2796375305460401
    x15        x19         -1.3461969688729039
    x15        x20         -2.2027886410067494
    x15        x21         -1.455792278146695
    x15        x22         -2.1089788530021845
    x15        x23         -1.6429659013614084
    x15        x24         -0.34787467090726265
    x15        x25         -0.71201979132895465
    x15        x26         -0.22159288972032465
    x15        x27         -2.3861318803951845
    x15        x28         -1.0881666277265503
    x15        x29         -0.11485720514922937
    x15        x30         -0.58476369180066556
    x15        x31         -0.6486187853630131
    x15        x32         1.2975280871743884
    x15        x33         -0.61397845782871729
    x15        x34         -0.12520329335371144
    x15        x35         2.5179924227296264
    x15        x36         -0.16063071856980118
    x15        x37         0.772350336430911
    x15        x38         0.53376120982086139
    x15        x39         -1.5838779416593107
    x15        x40         -1.4210596766323289
    x15        x41         0.63837635904445134
    x15        x42         -0.77562583806692142
    x15        x43         0.23103740025087116
    x15        x44         0.65881638043475343
    x15        x45         1.0911256563337361
    x15        x46         -0.4147959131184471
    x15        x47         1.9783719055388029
    x15        x48         -0.30386572745739021
    x15        x49         -2.4688326994456942
    x15        x50         -0.95511735339781345
    x15        x51         0.33921968030215544
    x15        x52         1.0205891827725277
    x15        x53         0.58508209053227223
    x15        x54         -0.66420113060514085
    x15        x55         1.2588681731669715
    x15        x56         -2.0516380862091328
    x15        x57         0.84802883669021423
    x15        x58         -1.3305570769392798
    x15        x59         -2.1731035444155515
    x15        x60         -2.9778107644503544
    x15        x61         0.8562960733140903
    x15        x62         -1.0898890684678855
    x15        x63         -1.9351943640101392
    x15        x64         1.3798717119368502
    x15        x65         0.046017602564661933
    x15        x66         -1.098813476721153
    x15        x67         -0.12511407005911396
    x15        x68         0.87779647048067178
    x15        x69         -2.7759243994264229
    x15        x70         0.81813419054715097
    x15        x71         -0.80306352427852001
    x15        x72         -0.51694240096050814
    x15        x73         -0.61040697912551334
    x15        x74         0.87629613176008037
    x15        x75         0.68712575762657147
    x15        x76         1.1197766969664542
    x15        x77         -0.17303219684799648
    x15        x78         1.2526487938693969
    x15        x79         0.25905311985668311
    x15        x80         -0.16703430669299638
    x15        x81         -0.79431814047889315
    x15        x82         -0.18782823895809508
    x15        x83         -0.70763628423021108
    x15        x84         -0.66303918685138385
    x15        x85         1.2918625173176306
    x15        x86         -1.8804315934170328
    x15        x87         0.64612397726602777
    x15        x88         -1.097938058421148
    x15        x89         0.14759278484585711
    x15        x90         2.8577843342188576
    x15        x91         -0.83664842938971795
    x15        x92         -1.7449225404362421
    x15        x93         -0.82067505256953599
    x15        x94         -0.88070207749474783
    x15        x95         -3.1977860163016412
    x15        x96         -1.7089058550346818
    x15        x97         0.16955164966391681
    x15        x98         -0.4670588722581141
    x15        x99         2.3176809286591946
    x16        x16         8.7805826888391216
    x16        x17         -0.0063078325735620028
    x16        x18         -0.068659010034037418
    x16        x19         0.75633450791878576
    x16        x20         1.7939080549858537
    x16        x21         -0.37091422494816123
    x16        x22         2.560020973073506
    x16        x23         1.9256513188775288
    x16        x24         1.6617005224949117
    x16        x25         -0.91474657706333529
    x16        x26         0.49881564438539688
    x16        x27         -0.41183503805251231
    x16        x28         -1.9660251290756692
    x16        x29         -0.42105515643700309
    x16        x30         -1.4923472819303705
    x16        x31         -3.3385716581784979
    x16        x32         -0.48706651894097869
    x16        x33         3.363349418199765
    x16        x34         -0.93783081201967111
    x16        x35         0.57149513039191135
    x16        x36         -0.90054027453570407
    x16        x37         2.0490693665000648
    x16        x38         -0.43462608770470557
    x16        x39         2.8757370565734597
    x16        x40         -0.39138531293506018
    x16        x41         -0.39092180161341722
    x16        x42         -1.8230178525978795
    x16        x43         -1.4358257956284002
    x16        x44         1.229514151909973
    x16        x45         -3.4251868299714965
    x16        x46         0.60886517391542427
    x16        x47         -0.19580705138018165
    x16        x48         -2.0711086609333553
    x16        x49         1.7937893372542009
    x16        x50         3.1328794066874095
    x16        x51         2.0760177507669182
    x16        x52         -2.0915124952884847
    x16        x53         0.32452211432194633
    x16        x54         -2.4424341329718082
    x16        x55         -0.84943434290857933
    x16        x56         1.8707204978029059
    x16        x57         2.1209471595068488
    x16        x58         1.3777030937399926
    x16        x59         -1.8603273449220437
    x16        x60         -0.088629141085347932
    x16        x61         0.89172557510236228
    x16        x62         2.0376745258950972
    x16        x63         2.2665031242232376
    x16        x64         0.75916866870673072
    x16        x65         -0.60296995760725891
    x16        x66         -0.061158879698598421
    x16        x67         -0.0064426823207339064
    x16        x68         0.71409599092885045
    x16        x69         -2.4189177627292118
    x16        x70         -1.2208637559937743
    x16        x71         -2.6564229455653536
    x16        x72         -1.4548831391277408
    x16        x73         -0.51230552176055755
    x16        x74         0.92830111054655529
    x16        x75         0.11969149339219064
    x16        x76         -0.77556138529236029
    x16        x77         0.5462609235837762
    x16        x78         0.85451458175693928
    x16        x79         -1.2611031553363654
    x16        x80         -1.3409224634951418
    x16        x81         -0.66321450512391966
    x16        x82         -2.6396066900580628
    x16        x83         -0.64622154244156571
    x16        x84         0.19860993382715736
    x16        x85         -2.9335631370308466
    x16        x86         -1.3708791524882733
    x16        x87         -1.6025872339446849
    x16        x88         0.63656595061919019
    x16        x89         -0.46292670111233919
    x16        x90         -1.6916171664914876
    x16        x91         -1.2745912507660762
    x16        x92         -0.78241145601029427
    x16        x93         1.0570132677224968
    x16        x94         0.52095570893747334
    x16        x95         1.3634688520384979
    x16        x96         -2.3303775226674155
    x16        x97         -1.7162341931905012
    x16        x98         3.5024222040337363
    x16        x99         2.5812757620003728
    x17        x17         6.447057262469694
    x17        x18         1.4783810361687209
    x17        x19         -0.17811010466099148
    x17        x20         1.8948822730065307
    x17        x21         1.2543271085259202
    x17        x22         -2.3823332813875124
    x17        x23         0.63921735084367615
    x17        x24         2.4738514025108573
    x17        x25         -1.3042536644093579
    x17        x26         1.4970075099619355
    x17        x27         0.59530234142358951
    x17        x28         -1.981459147666889
    x17        x29         0.6738839133973028
    x17        x30         2.7337750073342817
    x17        x31         -2.5122793505198606
    x17        x32         -0.69372417398371677
    x17        x33         -2.4406035704441287
    x17        x34         0.20335419594080667
    x17        x35         0.43758180392485435
    x17        x36         0.3397778701142013
    x17        x37         -0.70999897212965302
    x17        x38         -1.3263141520401647
    x17        x39         2.0180232896380792
    x17        x40         0.13705282928826237
    x17        x41         -0.68838447700124672
    x17        x42         -1.4389736622810807
    x17        x43         0.41499509940749107
    x17        x44         -1.7363609711290009
    x17        x45         -1.3760716049128956
    x17        x46         2.3066325965703705
    x17        x47         0.83622419462261255
    x17        x48         -0.70394890675295463
    x17        x49         1.0880406858172402
    x17        x50         -0.96732151337287908
    x17        x51         1.6419922503896498
    x17        x52         0.51010800738192263
    x17        x53         -1.026828532576743
    x17        x54         0.11845787045972797
    x17        x55         -1.4984434038386607
    x17        x56         -1.3719706617465508
    x17        x57         1.8811712144428672
    x17        x58         0.56540480126648207
    x17        x59         -1.0743007730105669
    x17        x60         1.9095505534350239
    x17        x61         -1.8471707327024622
    x17        x62         -0.38468491562910467
    x17        x63         -0.11773242249781112
    x17        x64         -1.145651083959796
    x17        x65         -0.054500675092134632
    x17        x66         -0.16881529391201705
    x17        x67         1.9707089527278598
    x17        x68         1.8739630818350275
    x17        x69         1.1999709461732411
    x17        x70         2.4777011237848097
    x17        x71         -3.6125311577936738
    x17        x72         -0.89318328953349602
    x17        x73         0.096744243621284212
    x17        x74         -1.7745494595686275
    x17        x75         1.7348734589878245
    x17        x76         -2.7481124820558227
    x17        x77         1.7317478958299961
    x17        x78         -1.1438600557935985
    x17        x79         -1.079128768232922
    x17        x80         1.3203203523634459
    x17        x81         0.60010998569789387
    x17        x82         -0.64951347617529787
    x17        x83         -0.25644083047815069
    x17        x84         -2.0256956222789042
    x17        x85         -1.6929025134989657
    x17        x86         1.4956383007172309
    x17        x87         0.055143663629663477
    x17        x88         0.89851207765101737
    x17        x89         -0.94572399350827174
    x17        x90         -1.0125807983960136
    x17        x91         -3.0344462215893531
    x17        x92         1.7414935111139558
    x17        x93         1.2518576280890363
    x17        x94         -1.2650510638727397
    x17        x95         0.812165672124737
    x17        x96         3.6290286529273388
    x17        x97         0.044914462151482981
    x17        x98         -1.1322617898396734
    x17        x99         -0.85050806888649111
    x18        x18         8.8136617764056666
    x18        x19         0.18178189877402787
    x18        x20         -1.0337814000184427
    x18        x21         0.48545194412632908
    x18        x22         0.64381955925245027
    x18        x23         0.29227721256885136
    x18        x24         0.25811769451154465
    x18        x25         1.2161112876275828
    x18        x26         4.190577200849658
    x18        x27         0.28979976641090166
    x18        x28         -0.096996513673589177
    x18        x29         -0.50318297934876144
    x18        x30         1.7754357048110341
    x18        x31         -0.32627307364034847
    x18        x32         2.5634807922372587
    x18        x33         0.73660828249495036
    x18        x34         3.0785235343611359
    x18        x35         -1.9565093049062681
    x18        x36         0.96483178514312151
    x18        x37         -0.57238882223140564
    x18        x38         -0.55846381486625096
    x18        x39         2.4180785569321452
    x18        x40         -0.42653076749385632
    x18        x41         -2.9326977656451332
    x18        x42         -0.72499741318477429
    x18        x43         -0.9175374421021385
    x18        x44         0.26446069995047039
    x18        x45         0.21013693076017989
    x18        x46         -1.7040448164107662
    x18        x47         0.40148191728423732
    x18        x48         -2.244229486871439
    x18        x49         2.6816166602239901
    x18        x50         0.53475292587997159
    x18        x51         2.240464259442668
    x18        x52         1.126436103857235
    x18        x53         -0.41668683524525668
    x18        x54         -0.080341304242664488
    x18        x55         -2.7504848657761807
    x18        x56         -1.3914347930451516
    x18        x57         -1.2388882871844717
    x18        x58         0.72934861617928437
    x18        x59         -0.12591160625857117
    x18        x60         -0.097886835771847078
    x18        x61         -0.85815017263776849
    x18        x62         -0.4302127132067971
    x18        x63         0.0999051884011498
    x18        x64         0.13546288565442893
    x18        x65         0.022438711629289718
    x18        x66         -3.4604866853051783
    x18        x67         1.0176495629428959
    x18        x68         -1.3121109435937499
    x18        x69         1.3584402430099332
    x18        x70         0.52192436354131944
    x18        x71         1.5237644461588435
    x18        x72         -0.67766116424194622
    x18        x73         0.15064788291040943
    x18        x74         1.0499649223029341
    x18        x75         0.26348302274139496
    x18        x76         1.0252833785097715
    x18        x77         3.4217664762910514
    x18        x78         1.5957141755519924
    x18        x79         -1.1719733427560608
    x18        x80         2.5168981916578437
    x18        x81         2.1251986177845477
    x18        x82         -0.24877566398674467
    x18        x83         -0.43553868198548451
    x18        x84         -0.84845604288215815
    x18        x85         1.223328604179829
    x18        x86         -0.53231047716704338
    x18        x87         -0.65804100684792199
    x18        x88         -0.48724591234197312
    x18        x89         1.189322113326563
    x18        x90         1.9551849982020599
    x18        x91         -1.6917769290953522
    x18        x92         1.9270951316962901
    x18        x93         1.7048565796090476
    x18        x94         -0.82553060804684575
    x18        x95         0.74645296439235642
    x18        x96         1.3286701765429716
    x18        x97         -2.2231499859969874
    x18        x98         1.4554669371255582
    x18        x99         0.065573412415761853
    x19        x19         5.4090663967675487
    x19        x20         2.5412567366388594
    x19        x21         1.6976301974592707
    x19        x22         -0.24954627182132502
    x19        x23         0.85157593261879838
    x19        x24         0.084634341265849775
    x19        x25         -0.71596865531577358
    x19        x26         0.8160208445666457
    x19        x27         1.8941996021337852
    x19        x28         0.51858828315714411
    x19        x29         -1.8414720341498385
    x19        x30         1.1856103937081692
    x19        x31         0.38077001981595077
    x19        x32         -0.6260476563542261
    x19        x33         -0.64324629238445052
    x19        x34         -1.3481131114503173
    x19        x35         -0.057523633812199125
    x19        x36         0.069513552890436675
    x19        x37         -1.4937000864187866
    x19        x38         -0.15651363962165563
    x19        x39         -1.5633972549291781
    x19        x40         0.65355874888890975
    x19        x41         0.70265210364320962
    x19        x42         -2.1198296476217693
    x19        x43         -1.3335084122955856
    x19        x44         0.98822980980764497
    x19        x45         -1.5349763894523527
    x19        x46         0.97065933257769677
    x19        x47         -1.8390120934704268
    x19        x48         -1.7902717104376586
    x19        x49         1.0052409301007661
    x19        x50         0.29721132905506664
    x19        x51         -0.71972090489588236
    x19        x52         -0.053614058201820379
    x19        x53         1.1941158178068636
    x19        x54         0.51417652906313538
    x19        x55         -1.5306305422001281
    x19        x56         2.5053552066048992
    x19        x57         0.00046794836401776053
    x19        x58         -0.44129110467799249
    x19        x59         1.3311532390004233
    x19        x60         0.25898862979919535
    x19        x61         -0.92208795618601413
    x19        x62         1.1999126948319367
    x19        x63         1.9877464511013458
    x19        x64         -0.58959171920164299
    x19        x65         -0.67004658407541906
    x19        x66         -0.99350287400651338
    x19        x67         0.39960804472801487
    x19        x68         -2.1454668481044123
    x19        x69         1.1376412097600048
    x19        x70         0.12845545975155792
    x19        x71         -0.45121108296464596
    x19        x72         1.2057652319007832
    x19        x73         -0.98231633868799018
    x19        x74         -0.53579494621947565
    x19        x75         -0.55202257757607587
    x19        x76         -1.4737431185201546
    x19        x77         -1.1828907703547751
    x19        x78         1.8752587950237465
    x19        x79         0.32535451331545689
    x19        x80         -1.3799115101355384
    x19        x81         1.7322418177244134
    x19        x82         -0.4494818354702943
    x19        x83         -0.90841810730846717
    x19        x84         -0.0065536676307721342
    x19        x85         1.0969117878282786
    x19        x86         0.55272708082510957
    x19        x87         -0.36779735526713409
    x19        x88         0.91472090327997224
    x19        x89         -2.439037908688233
    x19        x90         -0.16184272041958492
    x19        x91         0.42045205207767045
    x19        x92         2.2928449553395995
    x19        x93         -1.0798317240359339
    x19        x94         0.12454966321916072
    x19        x95         3.4778767970273892
    x19        x96         -1.8649831141938737
    x19        x97         0.38103772135372965
    x19        x98         2.4810578879457128
    x19        x99         -0.073282656843735722
    x20        x20         7.4150777309717482
    x20        x21         1.1122101151934123
    x20        x22         0.64968132133504641
    x20        x23         0.29004110412149098
    x20        x24         1.9654188929328562
    x20        x25         -2.8722221711020328
    x20        x26         0.76919996365378651
    x20        x27         -0.18066182141943884
    x20        x28         0.35272991959788347
    x20        x29         -2.1824169206731998
    x20        x30         -0.17197235028179014
    x20        x31         -1.2691607836065399
    x20        x32         -1.5227702168695385
    x20        x33         -1.3232125896734279
    x20        x34         1.5822018673043592
    x20        x35         0.46803399480182212
    x20        x36         -1.6700723339484607
    x20        x37         -0.23815175574987504
    x20        x38         0.23110476276950848
    x20        x39         -2.476488247115574
    x20        x40         1.9131871888104723
    x20        x41         0.85507719511076141
    x20        x42         -2.8100870179083226
    x20        x43         -0.54532824222262022
    x20        x44         -1.307671652276102
    x20        x45         -0.96327733496053092
    x20        x46         1.7324103915311853
    x20        x47         -2.8360132816218466
    x20        x48         1.8564537340607357
    x20        x49         0.45575551513529555
    x20        x50         0.99700914906310967
    x20        x51         0.85829387440357618
    x20        x52         -1.5192961678745847
    x20        x53         -1.352677036442316
    x20        x54         1.0438887929764875
    x20        x55         -2.6209473961204761
    x20        x56         2.7340942290100334
    x20        x57         1.7910889065670146
    x20        x58         0.19487079304810848
    x20        x59         -0.28073252772264695
    x20        x60         2.9905106666318
    x20        x61         -0.15177143443375071
    x20        x62         1.0732120642095624
    x20        x63         0.14931207075348915
    x20        x64         -2.0148222470819301
    x20        x65         0.15325725571268928
    x20        x66         0.92539892163974546
    x20        x67         0.40252717985617842
    x20        x68         1.2777983464524476
    x20        x69         2.1212693491148502
    x20        x70         1.6623686870789944
    x20        x71         -2.8253832807942376
    x20        x72         -0.30521923082806085
    x20        x73         1.4590451235444877
    x20        x74         0.88178030977828481
    x20        x75         0.06619927302116993
    x20        x76         -4.1642421262982019
    x20        x77         -0.59770965332543169
    x20        x78         0.45107983140295405
    x20        x79         0.931766094058184
    x20        x80         -1.4407059971423644
    x20        x81         -0.91249022062169582
    x20        x82         -1.9217126534136748
    x20        x83         -1.2117481881583756
    x20        x84         0.79493235391068762
    x20        x85         -2.1994181476604822
    x20        x86         1.6614746211336273
    x20        x87         -0.60585074693263385
    x20        x88         -0.05783252859287074
    x20        x89         -3.0450131859653351
    x20        x90         -1.1630707859330882
    x20        x91         -0.17575442376171649
    x20        x92         2.64852127201309
    x20        x93         -1.0614840166422783
    x20        x94         -0.13546229168607032
    x20        x95         1.9900354366977304
    x20        x96         0.07746086458358456
    x20        x97         2.2053010458972251
    x20        x98         1.3108135233465303
    x20        x99         -1.9113228584271977
    x21        x21         5.593903356222695
    x21        x22         -0.91983937527660575
    x21        x23         0.10390686078622434
    x21        x24         1.7195009372895487
    x21        x25         -1.4877772427198299
    x21        x26         1.3877112873329513
    x21        x27         0.90123725708689417
    x21        x28         0.77995710093870896
    x21        x29         0.94027480577445122
    x21        x30         3.357665097248173
    x21        x31         0.19927216093208155
    x21        x32         -1.2784686564414447
    x21        x33         -0.083238653318285782
    x21        x34         -1.2154373926280491
    x21        x35         -0.33197925125029309
    x21        x36         -0.45660419293163679
    x21        x37         0.6694608962714006
    x21        x38         1.0382153550832383
    x21        x39         0.65252500691822857
    x21        x40         0.64813433967377942
    x21        x41         0.93440363840034746
    x21        x42         -0.31836382148176706
    x21        x43         0.24757303530795755
    x21        x44         0.65373681126773953
    x21        x45         -0.31357884296585919
    x21        x46         2.0596862281474233
    x21        x47         0.92600075961131556
    x21        x48         -0.69962517294192894
    x21        x49         2.8600194500342728
    x21        x50         -0.64608556309647891
    x21        x51         0.56217280483830723
    x21        x52         0.98976194294140429
    x21        x53         0.03263062957682511
    x21        x54         0.15732804651182467
    x21        x55         1.7178252346462204
    x21        x56         2.6175291660887079
    x21        x57         -0.35350309880013087
    x21        x58         -1.4117426527239625
    x21        x59         -0.80382297264172331
    x21        x60         2.3903114536762899
    x21        x61         0.00054393767884972598
    x21        x62         1.5692512184621354
    x21        x63         1.3519184225276306
    x21        x64         -0.88242742781264383
    x21        x65         -1.8027064666450632
    x21        x66         -1.2839014742244224
    x21        x67         1.927609828669719
    x21        x68         -0.60522722401353879
    x21        x69         2.2155719280564941
    x21        x70         -0.18432686537983833
    x21        x71         0.044311187102510759
    x21        x72         0.87766804695386169
    x21        x73         -0.76932757186683742
    x21        x74         -0.43851717185425515
    x21        x75         -0.81052650684175953
    x21        x76         -3.2835659654040494
    x21        x77         0.17673545993106846
    x21        x78         1.0552305271058053
    x21        x79         -2.1296236042185903
    x21        x80         -1.332519119615476
    x21        x81         0.66345091556419322
    x21        x82         -3.3601124397938018
    x21        x83         -0.058987655811194688
    x21        x84         -1.3441850909952444
    x21        x85         -1.577333231145515
    x21        x86         1.8578780008511018
    x21        x87         -1.8790035019999443
    x21        x88         1.1807680603654325
    x21        x89         -0.48151945548815855
    x21        x90         -1.8249862901099352
    x21        x91         1.0461455843971361
    x21        x92         -1.2254954716304149
    x21        x93         -0.35297171870795258
    x21        x94         0.62278507343585554
    x21        x95         -0.32317588965382837
    x21        x96         0.68809714439157221
    x21        x97         0.39396478948035946
    x21        x98         0.29575538115872535
    x21        x99         -2.4319478313905547
    x22        x22         10.723877045691154
    x22        x23         2.581212145394443
    x22        x24         -0.75669673953420746
    x22        x25         -0.04216542388184466
    x22        x26         -0.33389589634683625
    x22        x27         -0.47044124791901054
    x22        x28         -2.6107912766923418
    x22        x29         -2.8698077584308517
    x22        x30         -2.7628652903258555
    x22        x31         1.6413885310502077
    x22        x32         -2.8703466713801578
    x22        x33         2.2800100306412578
    x22        x34         0.12374729236250301
    x22        x35         -1.4193260339616978
    x22        x36         0.013366385887675816
    x22        x37         2.2754319275830213
    x22        x38         -2.3921786352206587
    x22        x39         -0.5865242181044994
    x22        x40         -0.42046989410328439
    x22        x41         -0.31489388402139973
    x22        x42         1.9276636707701622
    x22        x43         -0.10732488971536407
    x22        x44         -2.939115068868984
    x22        x45         2.1933194212311422
    x22        x46         -1.9786994261233402
    x22        x47         0.18096162144012826
    x22        x48         0.51106574722832498
    x22        x49         2.1271136878439587
    x22        x50         0.83491429290365404
    x22        x51         -2.3781063779350786
    x22        x52         -0.74169646021065483
    x22        x53         -0.95590262596576558
    x22        x54         0.14972265397951029
    x22        x55         -0.52294543758434953
    x22        x56         1.8809357589537929
    x22        x57         -2.2168929319512398
    x22        x58         -0.11654319393261364
    x22        x59         0.41755415033191617
    x22        x60         2.0312671703358296
    x22        x61         2.1952738243986922
    x22        x62         -1.9477177044188569
    x22        x63         1.0069735145187579
    x22        x64         -1.9565288132809502
    x22        x65         4.0273393145759337
    x22        x66         0.85927637482304486
    x22        x67         -0.42189151256014512
    x22        x68         -1.3945825325990211
    x22        x69         -0.84701452964796797
    x22        x70         -1.2841674604409685
    x22        x71         3.8633669135957462
    x22        x72         -0.48123516540606637
    x22        x73         0.35749906420843308
    x22        x74         3.4811741873979174
    x22        x75         0.10207488686866338
    x22        x76         0.39334852412157056
    x22        x77         0.64351674240150836
    x22        x78         -1.9369162042199781
    x22        x79         -0.86020562565128589
    x22        x80         0.45391673333330462
    x22        x81         -0.99324463104131344
    x22        x82         -0.99712503395082908
    x22        x83         -0.63413672335310167
    x22        x84         0.96012559748588977
    x22        x85         -2.6135109722034748
    x22        x86         -2.0216882105728389
    x22        x87         -2.4006456212303116
    x22        x88         -2.6922385156547053
    x22        x89         1.037111441544931
    x22        x90         0.61468621414785984
    x22        x91         1.3764215901024417
    x22        x92         -0.028440111457355928
    x22        x93         -1.0706434582228317
    x22        x94         3.2746481933813203
    x22        x95         0.66684499482640303
    x22        x96         -2.102718495918531
    x22        x97         -0.25961984004196892
    x22        x98         3.3564700713076809
    x22        x99         1.0645199918155117
    x23        x23         6.8616789315475719
    x23        x24         1.6389399311204249
    x23        x25         1.7122435629236246
    x23        x26         1.3299336804003625
    x23        x27         0.67789617714620054
    x23        x28         -0.86205695006684324
    x23        x29         -0.60585730607307386
    x23        x30         0.91168160718016322
    x23        x31         0.86870197178853681
    x23        x32         -2.8385202235304181
    x23        x33         0.33411483454028607
    x23        x34         -0.8911335632907933
    x23        x35         1.0006178772148517
    x23        x36         0.4322466508023719
    x23        x37         0.29862791234718861
    x23        x38         -2.6384769357416658
    x23        x39         1.97862660045797
    x23        x40         -0.42030154476357184
    x23        x41         -1.4970938494189332
    x23        x42         1.8350649503727468
    x23        x43         -0.71775106574844127
    x23        x44         -3.5844356429502757
    x23        x45         -0.55785199417979003
    x23        x46         1.9255676328331492
    x23        x47         0.042601445611917248
    x23        x48         -2.3018550492717829
    x23        x49         3.4177677397274784
    x23        x50         1.1944927087167756
    x23        x51         -0.27532457432620744
    x23        x52         -0.15830226856885626
    x23        x53         -0.020489160039581737
    x23        x54         -2.1509381231200231
    x23        x55         0.70892610295342251
    x23        x56         2.2363787670221176
    x23        x57         -1.1266172242415116
    x23        x58         2.6069991516238336
    x23        x59         -0.50162685427657649
    x23        x60         0.027367768218611047
    x23        x61         1.4576789453221282
    x23        x62         0.10737116669725748
    x23        x63         0.28519994510662833
    x23        x64         -2.3644644606565519
    x23        x65         2.0925047335884615
    x23        x66         -1.1842896246780512
    x23        x67         -0.79208259806631653
    x23        x68         -1.3950228093141408
    x23        x69         -1.4471888102062163
    x23        x70         1.2772820158177267
    x23        x71         -1.3918851217223493
    x23        x72         -1.8502244622556181
    x23        x73         0.67999121011400221
    x23        x74         0.780031804838896
    x23        x75         0.9421422404150166
    x23        x76         -0.4063945406190364
    x23        x77         1.7289622057994924
    x23        x78         -1.3729071978953149
    x23        x79         -2.2828233607562467
    x23        x80         1.054891587158322
    x23        x81         1.3087486506975281
    x23        x82         0.32969071483668816
    x23        x83         -0.48508607500189949
    x23        x84         1.0081066094416564
    x23        x85         -1.8268807395219802
    x23        x86         -0.37762251661008639
    x23        x87         -0.8250215860484994
    x23        x88         0.049794490322732601
    x23        x89         -0.94884248158510309
    x23        x90         -1.5218169337712244
    x23        x91         0.65848008680908132
    x23        x92         -0.55647107649767602
    x23        x93         2.1082169160472324
    x23        x94         0.75335325838728473
    x23        x95         2.61178942161744
    x23        x96         1.2399844757282041
    x23        x97         0.029750939587613552
    x23        x98         1.6555473238202565
    x23        x99         -0.055475622778145106
    x24        x24         6.5856649337088644
    x24        x25         0.068503663061349446
    x24        x26         2.795535308745928
    x24        x27         -0.50058197747276256
    x24        x28         1.0517731446286303
    x24        x29         -0.056187959119331679
    x24        x30         1.2253880604082596
    x24        x31         -0.61782951108288453
    x24        x32         -1.2092330375861458
    x24        x33         -0.23669567826158738
    x24        x34         0.34422686231238753
    x24        x35         2.7741907925823521
    x24        x36         -1.303163634567537
    x24        x37         0.22380283764965808
    x24        x38         -1.5092069402001633
    x24        x39         1.6916841089597536
    x24        x40         -0.6631112980917252
    x24        x41         0.7487714052136093
    x24        x42         -2.0910751019735185
    x24        x43         0.28028478680852892
    x24        x44         -1.8721991221123968
    x24        x45         -0.91099418129272913
    x24        x46         4.5334058726088582
    x24        x47         0.29912079988644058
    x24        x48         -0.44027617918165329
    x24        x49         2.8953822373940614
    x24        x50         0.50053063474127857
    x24        x51         2.6535712081230787
    x24        x52         0.67851943928003067
    x24        x53         -0.141440614820036
    x24        x54         -0.64763226048991596
    x24        x55         1.4820639454390367
    x24        x56         0.64944875420206072
    x24        x57         1.0923257722871489
    x24        x58         -1.0026547876721132
    x24        x59         -2.1745215818989094
    x24        x60         1.8684042545286781
    x24        x61         0.77871713537008369
    x24        x62         0.0030837928728027764
    x24        x63         -0.19113677814513841
    x24        x64         -1.5327157832185638
    x24        x65         -1.3280801640341546
    x24        x66         0.30678201031615671
    x24        x67         1.8347959329150334
    x24        x68         1.8636316484007514
    x24        x69         0.95395464430876287
    x24        x70         0.67102129774501862
    x24        x71         -2.5912416192976409
    x24        x72         -1.654190231433875
    x24        x73         1.7850110375686725
    x24        x74         -0.44021131753090109
    x24        x75         1.2581532514444493
    x24        x76         -2.2264981963171873
    x24        x77         2.9641963006409227
    x24        x78         -1.5006220648110511
    x24        x79         -3.1250099100174866
    x24        x80         -0.025561893477889772
    x24        x81         -0.30861650541687252
    x24        x82         -2.3023771038604068
    x24        x83         -0.36984475367459579
    x24        x84         0.39148339509078406
    x24        x85         -1.4540491384846577
    x24        x86         0.34759404808794636
    x24        x87         -0.86617973664603576
    x24        x88         2.5044457130330779
    x24        x89         -1.1569466443478986
    x24        x90         -2.9373290957227036
    x24        x91         -0.58617038278114653
    x24        x92         0.9395435571547851
    x24        x93         0.73202199122070311
    x24        x94         -0.66981272173175066
    x24        x95         0.18902285003504593
    x24        x96         1.8564439815288767
    x24        x97         2.5611597378343349
    x24        x98         -0.22218499885757728
    x24        x99         -0.95151450903757528
    x25        x25         7.201297309629128
    x25        x26         1.5290612954014511
    x25        x27         -0.051471883842233709
    x25        x28         1.1477836682089722
    x25        x29         1.4256793063081261
    x25        x30         0.322338225659072
    x25        x31         1.9302750754660001
    x25        x32         1.7051200348140958
    x25        x33         -1.0745074758730415
    x25        x34         -2.1150123878190383
    x25        x35         1.8611499449515634
    x25        x36         1.4172798374496574
    x25        x37         0.25695762896710039
    x25        x38         -1.8283486856597748
    x25        x39         1.9539743474440425
    x25        x40         -1.5426611864119151
    x25        x41         -0.68413624434134812
    x25        x42         1.75165284218249
    x25        x43         0.95150705839070226
    x25        x44         0.7223214236239166
    x25        x45         0.27990184554661335
    x25        x46         0.11642818844048415
    x25        x47         0.97929578556526742
    x25        x48         -0.35068102292694842
    x25        x49         2.1098071412448078
    x25        x50         1.5064146956842963
    x25        x51         -0.57274258802325839
    x25        x52         2.1088926037195019
    x25        x53         -1.7928377645938258
    x25        x54         -1.4838434856060267
    x25        x55         0.011555811901161513
    x25        x56         -1.5335106804158407
    x25        x57         -2.4232941439344167
    x25        x58         0.4343459419530683
    x25        x59         0.29576230514617624
    x25        x60         -2.4060663200817003
    x25        x61         0.59857832370600494
    x25        x62         -0.014087797992419016
    x25        x63         -0.9180165629407121
    x25        x64         0.88545262070609776
    x25        x65         1.6401827189094944
    x25        x66         -1.5424299023676622
    x25        x67         -1.8446133349326408
    x25        x68         -0.71213670027535925
    x25        x69         -0.58363951502345768
    x25        x70         -2.8528630434098323
    x25        x71         2.0917700445698495
    x25        x72         -1.6641546059761314
    x25        x73         0.43048221863811004
    x25        x74         -1.9248933784630908
    x25        x75         -1.1700641898386697
    x25        x76         4.403370225253278
    x25        x77         2.6629947693789462
    x25        x78         -1.3287544880560345
    x25        x79         -1.057913402830466
    x25        x80         0.6901161949898762
    x25        x81         1.274430496035917
    x25        x82         4.5223873657905775
    x25        x83         0.99790427302683404
    x25        x84         -0.010878022234964828
    x25        x85         2.1555573514045059
    x25        x86         -0.94760666645256986
    x25        x87         1.8925974125911376
    x25        x88         0.79493253092462246
    x25        x89         -0.086211583830099775
    x25        x90         -0.12503089774554837
    x25        x91         0.045417580710030804
    x25        x92         1.7829828631029252
    x25        x93         1.7719915747842214
    x25        x94         0.62764576611867628
    x25        x95         0.080546147750019823
    x25        x96         0.39263078112955546
    x25        x97         -0.55669225327496608
    x25        x98         -0.074132357369231128
    x25        x99         1.5238524024761124
    x26        x26         7.4639277224791147
    x26        x27         -0.26056354921878255
    x26        x28         1.6941326982771283
    x26        x29         -0.010692090042735084
    x26        x30         2.2328493901413893
    x26        x31         0.86316403868139613
    x26        x32         1.057776130742788
    x26        x33         -1.1679512316881668
    x26        x34         1.4277758689194424
    x26        x35         1.47482479317676
    x26        x36         -1.2013637190094235
    x26        x37         0.011737631154743241
    x26        x38         -0.22375217867888889
    x26        x39         2.4393176552674993
    x26        x40         -0.72804628527147952
    x26        x41         -0.52294925740087905
    x26        x42         -1.2669232929814997
    x26        x43         -0.064494590606269608
    x26        x44         -0.35222066872140856
    x26        x45         0.5785705247767442
    x26        x46         1.6494440967006658
    x26        x47         0.43542344598158134
    x26        x48         -1.4843464957395323
    x26        x49         3.4775458752178383
    x26        x50         2.6055153531792028
    x26        x51         2.9073449205207007
    x26        x52         0.12870780084901157
    x26        x53         -2.2710506770182359
    x26        x54         0.65447815717923985
    x26        x55         -1.5280217586904163
    x26        x56         -0.60708423356010943
    x26        x57         -1.016807713653938
    x26        x58         0.62014595598336442
    x26        x59         -2.9923158440880844
    x26        x60         -1.0570298087111485
    x26        x61         0.39252826048182249
    x26        x62         0.79158110108893454
    x26        x63         -0.44223790102663335
    x26        x64         -0.13516073199789908
    x26        x65         -0.045721467555982304
    x26        x66         -2.9191130200867565
    x26        x67         0.86854098022777904
    x26        x68         0.23124967039473968
    x26        x69         -0.03348740314525217
    x26        x70         0.674133565782846
    x26        x71         0.12380617370345598
    x26        x72         -0.55446842177680333
    x26        x73         0.82340694817879645
    x26        x74         -0.88941643245570912
    x26        x75         1.2834833276475326
    x26        x76         -1.2291060454343354
    x26        x77         3.1609566512357565
    x26        x78         1.2528905174160998
    x26        x79         -3.3327769182225508
    x26        x80         1.0526951895744867
    x26        x81         0.3970194761272936
    x26        x82         0.095461451939264808
    x26        x83         0.58163246020985726
    x26        x84         0.23963264981398075
    x26        x85         -0.78390985325750917
    x26        x86         0.32726169937702831
    x26        x87         -0.77622125632300154
    x26        x88         1.273192718262034
    x26        x89         -1.4767770606239157
    x26        x90         0.26817712484663986
    x26        x91         0.66576969823578236
    x26        x92         1.4708893393945881
    x26        x93         0.3671845591541531
    x26        x94         1.0860789941363382
    x26        x95         0.70672391337857854
    x26        x96         -0.68486570752864573
    x26        x97         0.49249766946461521
    x26        x98         1.7520770269451074
    x26        x99         -0.34501356590534205
    x27        x27         7.7739726242482288
    x27        x28         -0.78071543443420088
    x27        x29         -1.3704564001941562
    x27        x30         0.26980465556691308
    x27        x31         -0.99529997727641883
    x27        x32         -0.83001783067090518
    x27        x33         1.2520969101331254
    x27        x34         -2.0583649089174356
    x27        x35         -2.7727190718428316
    x27        x36         1.1128246758610449
    x27        x37         0.14117031591893126
    x27        x38         -1.9442883453521438
    x27        x39         0.55087747685103938
    x27        x40         -0.28892221698954729
    x27        x41         0.047702735272592466
    x27        x42         -0.34311605791382938
    x27        x43         -0.61707011730698957
    x27        x44         1.051504350822535
    x27        x45         -3.2978738783829602
    x27        x46         0.44247675758708882
    x27        x47         -2.0226839490157014
    x27        x48         -2.701866620126351
    x27        x49         1.6954832865197418
    x27        x50         -1.0000633375217141
    x27        x51         -2.7416280664599295
    x27        x52         -0.85153240063877267
    x27        x53         1.5969576177690616
    x27        x54         -1.5932636453888629
    x27        x55         0.55923432542942408
    x27        x56         0.25544744149800608
    x27        x57         1.9862561270946637
    x27        x58         0.31688209250734067
    x27        x59         3.2653729616598737
    x27        x60         0.2547035837989014
    x27        x61         -1.2459159926592229
    x27        x62         -1.3330882288148873
    x27        x63         4.7815902084695656
    x27        x64         1.0529091082064468
    x27        x65         -1.922528181304352
    x27        x66         1.6236915468993895
    x27        x67         1.8166000517230345
    x27        x68         0.40726524024939775
    x27        x69         0.51597931102954431
    x27        x70         1.0876996542198698
    x27        x71         -0.8222284154344397
    x27        x72         -1.2327302143885559
    x27        x73         -2.5629770753750463
    x27        x74         -2.3165635256522177
    x27        x75         0.9694180010377591
    x27        x76         -1.2597001419296034
    x27        x77         -3.0877175902189484
    x27        x78         -0.71538134324332281
    x27        x79         1.3062246087265466
    x27        x80         -0.42971191537638026
    x27        x81         0.22065143051886132
    x27        x82         1.2794927091832498
    x27        x83         0.73323932478448139
    x27        x84         3.6249275056939476
    x27        x85         -0.023506995616329344
    x27        x86         0.92091496281808305
    x27        x87         -0.012434081743734057
    x27        x88         4.9440674680768799
    x27        x89         -1.2506687553421907
    x27        x90         -2.4957826485191208
    x27        x91         0.67750003180388063
    x27        x92         -0.70596375906947451
    x27        x93         -0.89025327560222123
    x27        x94         2.0338239392333346
    x27        x95         2.0767690993636898
    x27        x96         -1.3226222319005616
    x27        x97         -2.3949539607366428
    x27        x98         1.1825898218435378
    x27        x99         0.80541733702810225
    x28        x28         9.5404901718236683
    x28        x29         2.5647884513512706
    x28        x30         1.0774756630398308
    x28        x31         2.8217387974114421
    x28        x32         2.0538818808164088
    x28        x33         0.54354728464737712
    x28        x34         2.0536716058519389
    x28        x35         0.66729172439207385
    x28        x36         -1.1744240715023129
    x28        x37         -0.29979360004918348
    x28        x38         1.3639913122728018
    x28        x39         -0.5212637643323994
    x28        x40         2.1976121205065087
    x28        x41         0.518136313963099
    x28        x42         -2.3426556389379587
    x28        x43         -1.1331211407857706
    x28        x44         2.4412287446189458
    x28        x45         -0.036855022091004934
    x28        x46         1.592385930732116
    x28        x47         -2.1610499668642449
    x28        x48         0.11566851559088179
    x28        x49         -1.0665815159578809
    x28        x50         2.6459658937410704
    x28        x51         1.6066383083514844
    x28        x52         -1.6049955612823925
    x28        x53         0.84391210874425782
    x28        x54         1.1555313468744188
    x28        x55         0.13235717475893277
    x28        x56         2.1260964485139522
    x28        x57         0.49989765094565458
    x28        x58         1.3177402223386232
    x28        x59         -0.91409101593936759
    x28        x60         0.79993463425555189
    x28        x61         -1.7081381950483527
    x28        x62         3.6988807784978013
    x28        x63         0.24654556113347095
    x28        x64         1.7931059798771862
    x28        x65         -4.1688606781994766
    x28        x66         1.1221643833939647
    x28        x67         -0.14863773657350285
    x28        x68         -1.2493420184035662
    x28        x69         2.7429310689399231
    x28        x70         -1.1423089443403867
    x28        x71         0.86176125900360789
    x28        x72         2.0371270309173504
    x28        x73         3.3565704338203948
    x28        x74         -1.3683048959708355
    x28        x75         -1.1164654925563953
    x28        x76         -0.022045725806142162
    x28        x77         0.29461695597204307
    x28        x78         1.745407977149886
    x28        x79         -0.30473708524851117
    x28        x80         1.198171697269389
    x28        x81         0.65153974075406995
    x28        x82         -0.37840284806651281
    x28        x83         1.7845397519182362
    x28        x84         1.4347841390032756
    x28        x85         0.54478918514022512
    x28        x86         0.24726629034663378
    x28        x87         1.2468210870780483
    x28        x88         0.4538942073426564
    x28        x89         0.0087535565557933931
    x28        x90         -1.6259078250762702
    x28        x91         2.65502337862775
    x28        x92         -1.1783509177663316
    x28        x93         -0.71768066864530455
    x28        x94         -1.0864837514001797
    x28        x95         0.1295718513798301
    x28        x96         -0.72832592620232506
    x28        x97         0.725508525643901
    x28        x98         -1.0374552250316893
    x28        x99         -5.3330291545597284
    x29        x29         7.0133378786415888
    x29        x30         2.5681095612170939
    x29        x31         -0.34345023624227039
    x29        x32         1.4971859250213915
    x29        x33         0.18691793356564948
    x29        x34         -1.4025907748211008
    x29        x35         0.65408837517605956
    x29        x36         0.015769308149868308
    x29        x37         1.5896834878715362
    x29        x38         1.069211830020615
    x29        x39         2.4076046254006505
    x29        x40         1.2389569397484643
    x29        x41         0.24605971564915904
    x29        x42         -0.064576281761286158
    x29        x43         0.90397666331653836
    x29        x44         1.8047637134279333
    x29        x45         -0.66288584150426766
    x29        x46         1.0427044035397199
    x29        x47         2.4233681198889818
    x29        x48         -0.2983405705937478
    x29        x49         -0.87842799053641452
    x29        x50         1.6501522937150952
    x29        x51         0.60958324342785819
    x29        x52         -0.58648171710722152
    x29        x53         -1.2855921526152516
    x29        x54         0.052423513395120178
    x29        x55         0.40106544176820697
    x29        x56         0.20703218277533958
    x29        x57         0.89655582216526131
    x29        x58         1.0011239654354021
    x29        x59         -1.3663989530119103
    x29        x60         0.7616568056002424
    x29        x61         -1.4269701575594638
    x29        x62         2.2908829657072727
    x29        x63         -0.85013915968598552
    x29        x64         2.2428007223131292
    x29        x65         -1.4893867644835057
    x29        x66         0.8200773357831711
    x29        x67         -0.47246299774098827
    x29        x68         -1.2445264766065667
    x29        x69         -0.45244787237505951
    x29        x70         -2.6981019457073727
    x29        x71         0.036001830507376875
    x29        x72         -0.057149944187783915
    x29        x73         0.47123776871650014
    x29        x74         -2.6821275427109676
    x29        x75         -1.8692156357682135
    x29        x76         0.37320696287563437
    x29        x77         1.2502808725052124
    x29        x78         -0.46190733624291808
    x29        x79         -2.7532285598572868
    x29        x80         0.22083099903426426
    x29        x81         0.58684784191887507
    x29        x82         -0.19106493337956967
    x29        x83         2.1860709926755995
    x29        x84         -1.6215826143046641
    x29        x85         -2.1826768240819567
    x29        x86         1.6005441741447599
    x29        x87         0.60864850504003043
    x29        x88         -0.72239425884269404
    x29        x89         2.7399593691369981
    x29        x90         -2.1019521292125587
    x29        x91         0.29128187793962235
    x29        x92         -2.5259450804184254
    x29        x93         1.0846314099179768
    x29        x94         -1.5551414578213085
    x29        x95         -1.0157122221501762
    x29        x96         1.8053170122604505
    x29        x97         -1.5716171960509366
    x29        x98         -1.4373081239886432
    x29        x99         -2.2639222036646318
    x30        x30         7.8740185936415017
    x30        x31         0.74344766404785489
    x30        x32         0.56139529700624646
    x30        x33         -1.5308624036692438
    x30        x34         -2.1564229664273049
    x30        x35         0.37020553227055464
    x30        x36         0.24775271962588799
    x30        x37         -0.085321455066982077
    x30        x38         -1.0013912961984597
    x30        x39         1.2351765431303285
    x30        x40         0.92895075600555732
    x30        x41         -0.29169562676252364
    x30        x42         -0.44414829733622757
    x30        x43         0.84477686329373969
    x30        x44         0.34802032820873557
    x30        x45         0.79282323256114473
    x30        x46         1.8614858096604743
    x30        x47         3.4113454218773014
    x30        x48         -1.8760550633623732
    x30        x49         1.7673322048908013
    x30        x50         -0.01129100489695245
    x30        x51         0.24173714530706192
    x30        x52         2.9854169928065049
    x30        x53         -0.75911044731046673
    x30        x54         -1.6033695015250746
    x30        x55         -0.24488990535525501
    x30        x56         0.5227304850223421
    x30        x57         -1.2163456143648093
    x30        x58         1.0897764419668352
    x30        x59         -1.7976914188650948
    x30        x60         1.0529860853134612
    x30        x61         -1.9895194047706299
    x30        x62         2.228069989161229
    x30        x63         0.29341914184059692
    x30        x64         -0.082531134040230922
    x30        x65         -1.7098779066510323
    x30        x66         -3.1496435821796323
    x30        x67         0.95553526710121894
    x30        x68         0.12612696006550045
    x30        x69         1.9184443520311729
    x30        x70         -0.79160744278267192
    x30        x71         -0.28698157759629711
    x30        x72         0.72486329038617503
    x30        x73         0.0067791534926883047
    x30        x74         -1.8738790576787467
    x30        x75         -0.089063170123378499
    x30        x76         -2.3617569279272139
    x30        x77         0.84479625150048088
    x30        x78         0.82443174503886318
    x30        x79         -1.79851350005879
    x30        x80         0.15254821687616474
    x30        x81         2.0432855636756946
    x30        x82         -1.2020223576264855
    x30        x83         -0.098430862261570801
    x30        x84         -2.4713518575554891
    x30        x85         -1.012071642115409
    x30        x86         -0.17793046444616956
    x30        x87         0.87942050250009152
    x30        x88         -0.94610648490649429
    x30        x89         0.10207081945651884
    x30        x90         -0.47620957844325068
    x30        x91         -1.6184063287105572
    x30        x92         0.18945858575382288
    x30        x93         0.94964643469580212
    x30        x94         -0.34027260993552294
    x30        x95         -1.5899187558626211
    x30        x96         1.6665268212270243
    x30        x97         -0.67614150234523551
    x30        x98         -0.97457087807223053
    x30        x99         -3.0478393913656014
    x31        x31         6.6399100355810425
    x31        x32         -0.30097795615932549
    x31        x33         -1.0151370869487626
    x31        x34         -0.066656383253846652
    x31        x35         0.33791910863863917
    x31        x36         0.13320634679486906
    x31        x37         -1.5808096318885261
    x31        x38         0.23835610543292787
    x31        x39         -0.82543431861737626
    x31        x40         -0.46356583472811619
    x31        x41         0.62702210015246451
    x31        x42         2.999994567632279
    x31        x43         -0.52308169182097242
    x31        x44         -1.4686191394989172
    x31        x45         2.6497360810790895
    x31        x46         -0.31849746929127259
    x31        x47         0.39709467271526544
    x31        x48         0.52317935000445215
    x31        x49         0.28333010548626381
    x31        x50         -0.36799607664964817
    x31        x51         -0.44660251169274634
    x31        x52         1.8468847469531238
    x31        x53         0.58448246386363101
    x31        x54         1.1876068731214404
    x31        x55         2.3128743804730583
    x31        x56         0.18530463770124594
    x31        x57         -4.1663653469285657
    x31        x58         0.23004317584681994
    x31        x59         -0.49328129192615239
    x31        x60         0.25933452529529383
    x31        x61         1.3446508906227095
    x31        x62         0.67359885935354757
    x31        x63         -1.1970390328785179
    x31        x64         -1.3473374027404721
    x31        x65         1.9675788552017424
    x31        x66         -1.5626494113984557
    x31        x67         -2.0632867044877519
    x31        x68         -0.99170261719853048
    x31        x69         0.34612234380280765
    x31        x70         -0.4223911933798884
    x31        x71         3.9583388165306572
    x31        x72         1.7919643496326523
    x31        x73         1.61525548756868
    x31        x74         -0.30504695167994567
    x31        x75         -0.96218568586523345
    x31        x76         1.8730970578070001
    x31        x77         0.63807948945162785
    x31        x78         0.6775753559027009
    x31        x79         0.21039908749552613
    x31        x80         -0.100718640142982
    x31        x81         1.0623239689937614
    x31        x82         1.2933175836619419
    x31        x83         1.0731264528570688
    x31        x84         0.92448832975070339
    x31        x85         1.3156381494471105
    x31        x86         -1.0826636018225368
    x31        x87         -0.088734477673645284
    x31        x88         -1.7688262046670826
    x31        x89         0.47078559220013144
    x31        x90         0.60148966031219564
    x31        x91         2.9727127536703524
    x31        x92         1.1147294971759896
    x31        x93         0.27852980907250569
    x31        x94         1.0455971357648686
    x31        x95         -0.9491053333183842
    x31        x96         -1.069706649371382
    x31        x97         2.1160402623069028
    x31        x98         -0.62700033408540057
    x31        x99         -1.5459281840479384
    x32        x32         5.9964823341747779
    x32        x33         0.29549531703887705
    x32        x34         1.1275361194150948
    x32        x35         -0.7806742782898487
    x32        x36         0.90218334977622139
    x32        x37         -0.54229938412925238
    x32        x38         1.1198791892248512
    x32        x39         0.52359557264932555
    x32        x40         0.49683990280593565
    x32        x41         -0.58136629615948487
    x32        x42         -1.1479573037968542
    x32        x43         0.63582683988049526
    x32        x44         2.9737098320889293
    x32        x45         -0.51454135186011241
    x32        x46         -2.2495174714334869
    x32        x47         0.69500341174746294
    x32        x48         -0.22224757527501116
    x32        x49         -1.109622707830515
    x32        x50         0.91012291461209338
    x32        x51         1.5198210729462864
    x32        x52         0.57603577895175817
    x32        x53         0.0089408855784729405
    x32        x54         -1.2868385793404777
    x32        x55         -2.5446831554782334
    x32        x56         -2.7349223980414985
    x32        x57         0.41087794682049322
    x32        x58         0.54995753590326935
    x32        x59         -0.83480441209180989
    x32        x60         -2.0574044788095018
    x32        x61         -0.80759190995852737
    x32        x62         1.0157032926668301
    x32        x63         0.099909780719479369
    x32        x64         2.8848628120930933
    x32        x65         -2.2329182728321806
    x32        x66         -1.4630095635733202
    x32        x67         -1.0218219556009105
    x32        x68         0.36868322516781032
    x32        x69         -0.68227876781427432
    x32        x70         -1.863436251225177
    x32        x71         1.3400946952326489
    x32        x72         0.048556467329184574
    x32        x73         0.41614223844521825
    x32        x74         -0.76705804797958221
    x32        x75         -0.90758472039581473
    x32        x76         2.3237151587882279
    x32        x77         0.70451037285961382
    x32        x78         2.307045882568215
    x32        x79         1.51358932281937
    x32        x80         0.6418014329042947
    x32        x81         0.081564340845739949
    x32        x82         2.021275441982906
    x32        x83         1.0224155956263503
    x32        x84         -0.033104364692866456
    x32        x85         1.9631129230272781
    x32        x86         -0.98839605143104781
    x32        x87         1.9704697683415286
    x32        x88         -0.15512254119862343
    x32        x89         0.68375492902047308
    x32        x90         1.0004027750080058
    x32        x91         -1.9277095704364626
    x32        x92         1.9050447222978963
    x32        x93         0.082611522362275647
    x32        x94         -1.1382123478648041
    x32        x95         -1.3400652874842125
    x32        x96         -0.92651975186246949
    x32        x97         -1.8262666840965172
    x32        x98         -0.74310893517775234
    x32        x99         -0.47226754639657237
    x33        x33         8.3749621458837407
    x33        x34         1.3294152241018906
    x33        x35         -2.6504806387798268
    x33        x36         -0.9896321504787936
    x33        x37         1.3081971150560143
    x33        x38         0.62756977219264287
    x33        x39         1.8655015174428777
    x33        x40         1.6606662371870111
    x33        x41         -0.40294691440200403
    x33        x42         0.066393736351072652
    x33        x43         -0.94304114999748978
    x33        x44         0.12973542002463948
    x33        x45         -1.401246078021753
    x33        x46         -1.6890931840861572
    x33        x47         -0.35034968375209807
    x33        x48         -1.8609974994065293
    x33        x49         -0.085285364942397385
    x33        x50         1.5737237298772495
    x33        x51         0.087663704454099864
    x33        x52         -2.137110130241108
    x33        x53         2.9255714301138269
    x33        x54         -3.0616078619436062
    x33        x55         2.5193543195622392
    x33        x56         1.6933554539860469
    x33        x57         0.17910604913418821
    x33        x58         0.79036183893734957
    x33        x59         0.72769253800331213
    x33        x60         -0.59952698802364834
    x33        x61         1.8409718968069757
    x33        x62         1.1009624784702714
    x33        x63         2.1493474325701882
    x33        x64         1.9020466095747048
    x33        x65         -3.3225040298644775
    x33        x66         1.4710098395183098
    x33        x67         -0.41133579834425571
    x33        x68         0.49705428226645465
    x33        x69         -1.0615101737940531
    x33        x70         -2.5431753292231676
    x33        x71         0.43723787556534194
    x33        x72         -0.90329947597312554
    x33        x73         -0.38516527501318421
    x33        x74         2.2403411961937678
    x33        x75         -0.90834094293727896
    x33        x76         -0.6663802964701846
    x33        x77         -1.4111811735398303
    x33        x78         0.3819635485879514
    x33        x79         -0.71586637884082527
    x33        x80         -0.38859409309786036
    x33        x81         -0.74937582122280577
    x33        x82         -3.4557415420700686
    x33        x83         0.23658242428548393
    x33        x84         2.7316094841027332
    x33        x85         -1.5213863802673699
    x33        x86         -1.218451408836025
    x33        x87         -1.6540539585374672
    x33        x88         1.1035253968406251
    x33        x89         1.483924621706231
    x33        x90         -1.767928217705629
    x33        x91         1.1099989068771892
    x33        x92         -3.4921084041218635
    x33        x93         0.73543587747889416
    x33        x94         0.39903620873754586
    x33        x95         -1.0390006378751315
    x33        x96         -1.6994301382409671
    x33        x97         -1.7665812000095198
    x33        x98         1.5501993102980658
    x33        x99         0.055199890031277656
    x34        x34         8.0671329365381386
    x34        x35         -1.4745930727318273
    x34        x36         -1.0953623967443644
    x34        x37         -1.0326465916356331
    x34        x38         1.9080650830677026
    x34        x39         -0.95883021520090328
    x34        x40         1.8259860155042857
    x34        x41         -1.5923747115271876
    x34        x42         -0.69916915989727224
    x34        x43         -1.0399426324623549
    x34        x44         -2.454061684268575
    x34        x45         1.1395661591974595
    x34        x46         -1.6416248494422367
    x34        x47         -2.6092203425058069
    x34        x48         1.5403131474482152
    x34        x49         -1.3926358807261237
    x34        x50         0.27098721592837238
    x34        x51         2.8591641591679622
    x34        x52         -2.1798505944693125
    x34        x53         0.49313378795461882
    x34        x54         1.4446702578410009
    x34        x55         -1.2062882866924336
    x34        x56         -0.2815473631165068
    x34        x57         0.5094909717958972
    x34        x58         0.99408107450685768
    x34        x59         -0.5415321573025289
    x34        x60         0.5849240260493126
    x34        x61         1.0547298732403525
    x34        x62         -0.42756936067677537
    x34        x63         -2.3753618326513735
    x34        x64         -0.84602543422140009
    x34        x65         -0.46456464236552586
    x34        x66         0.2328099668138546
    x34        x67         -0.36757338370275816
    x34        x68         0.45223546033281492
    x34        x69         0.86670634191920404
    x34        x70         2.9380189107208796
    x34        x71         -0.59781598261558033
    x34        x72         -0.32091070481771827
    x34        x73         2.7945721365806659
    x34        x74         3.392860082412299
    x34        x75         0.57466112594341812
    x34        x76         -0.96951129161040761
    x34        x77         1.3218703306488879
    x34        x78         1.3242598180694578
    x34        x79         0.77436145511008869
    x34        x80         2.3387006549189944
    x34        x81         -0.72247214711614427
    x34        x82         -1.6801392761346969
    x34        x83         -0.31540288337944239
    x34        x84         1.6720470490759376
    x34        x85         -0.033267609499096948
    x34        x86         0.74528741407175436
    x34        x87         -0.84899467308109322
    x34        x88         -1.36286566410179
    x34        x89         0.27811701311414389
    x34        x90         1.4469212395419033
    x34        x91         0.63878261548778237
    x34        x92         0.058347492496276278
    x34        x93         0.47652724358919923
    x34        x94         -1.9584704509342155
    x34        x95         0.011626158177470793
    x34        x96         1.7269878631732656
    x34        x97         1.1468289970280054
    x34        x98         -0.62005632882380357
    x34        x99         -2.4015890434932072
    x35        x35         6.8993689017739799
    x35        x36         -1.3304216562819806
    x35        x37         -0.43290301293439631
    x35        x38         -0.39409242616079104
    x35        x39         -0.25313446427096109
    x35        x40         -2.0502045251849408
    x35        x41         0.18545869369262172
    x35        x42         -1.7394186742305187
    x35        x43         -0.35091098185596292
    x35        x44         -0.69328337735640166
    x35        x45         1.0565205331805283
    x35        x46         3.596343269974696
    x35        x47         1.0353380246032688
    x35        x48         -0.049954901444067792
    x35        x49         0.20383566571710632
    x35        x50         1.1010936528964304
    x35        x51         0.96394823104203375
    x35        x52         0.513432339632651
    x35        x53         -2.0461987654513836
    x35        x54         0.68184764310325108
    x35        x55         0.70232530663037207
    x35        x56         0.72011814516321693
    x35        x57         -0.70423656776817867
    x35        x58         -1.0199040144036653
    x35        x59         -1.9970923838280328
    x35        x60         -1.3599424755271263
    x35        x61         0.070123233043027478
    x35        x62         -0.14931462106253771
    x35        x63         -2.0513481702834206
    x35        x64         -0.93925666745507497
    x35        x65         1.3036538803076274
    x35        x66         0.44761688988214371
    x35        x67         0.54803738451563055
    x35        x68         -0.050153533867039357
    x35        x69         0.53991914565737564
    x35        x70         0.012986817337739048
    x35        x71         -1.4723788059197067
    x35        x72         -0.45067390968435644
    x35        x73         0.43696924547714189
    x35        x74         -0.65176962844012165
    x35        x75         0.3371230113033658
    x35        x76         0.77600118209456259
    x35        x77         2.8851687333171903
    x35        x78         -1.7790016097673347
    x35        x79         -2.2321536398177009
    x35        x80         0.25124086725614775
    x35        x81         -0.015407871621494398
    x35        x82         1.2244267018828325
    x35        x83         -0.87270483859520298
    x35        x84         -2.0683713619914443
    x35        x85         0.69702000283491028
    x35        x86         -0.15019637124588189
    x35        x87         0.44891856609448788
    x35        x88         0.076357071253936176
    x35        x89         -2.2073696400541989
    x35        x90         0.81105442293100927
    x35        x91         -0.78050602043628348
    x35        x92         0.96802540837700624
    x35        x93         0.30247278580266068
    x35        x94         -0.65707775551120751
    x35        x95         -1.0850199685648363
    x35        x96         0.33798528934837657
    x35        x97         2.3596405765369575
    x35        x98         0.49578192853476954
    x35        x99         0.75389645582051612
    x36        x36         4.9176565023617229
    x36        x37         0.30813289390308496
    x36        x38         -2.0424902738017576
    x36        x39         0.62571504498182118
    x36        x40         0.67580942851852488
    x36        x41         -0.054578637639145569
    x36        x42         0.84357539585343277
    x36        x43         0.23182772655449765
    x36        x44         -0.29194170429534566
    x36        x45         -2.1718601604291563
    x36        x46         -1.4481832347466332
    x36        x47         0.17466628276417548
    x36        x48         -1.4234072675184379
    x36        x49         0.51072460940304421
    x36        x50         -2.2060677787787273
    x36        x51         -1.3102104009206039
    x36        x52         1.5649197811225624
    x36        x53         1.7995710770618203
    x36        x54         -1.6815703160795952
    x36        x55         -0.24055671556201108
    x36        x56         -1.7655004408015134
    x36        x57         0.76163158957785659
    x36        x58         -0.37112675415623647
    x36        x59         0.66792945388411817
    x36        x60         0.44643389773142683
    x36        x61         -0.29780714684129989
    x36        x62         -0.36438577087218765
    x36        x63         1.1801537098853945
    x36        x64         0.9539593300494037
    x36        x65         0.72282784965924163
    x36        x66         -0.77739557985856367
    x36        x67         -0.60525995397380483
    x36        x68         -0.67262176057111112
    x36        x69         -0.61079813361890045
    x36        x70         0.093216345298111222
    x36        x71         0.49835468857738441
    x36        x72         -0.87171975783025057
    x36        x73         -0.1593862163049109
    x36        x74         -1.3100675148742607
    x36        x75         -1.0617961471176407
    x36        x76         1.699696582204701
    x36        x77         0.86866750051491481
    x36        x78         0.77337825578287911
    x36        x79         1.4907477775905162
    x36        x80         1.8720781853573913
    x36        x81         1.9771510506734933
    x36        x82         1.5542579249471458
    x36        x83         0.93849826581829032
    x36        x84         -1.3606642287227957
    x36        x85         0.87726790878786087
    x36        x86         -0.51302722530560518
    x36        x87         0.61735242411669611
    x36        x88         0.0019435401302521898
    x36        x89         -0.69569499267555124
    x36        x90         0.041657516045886543
    x36        x91         -1.5137224545086698
    x36        x92         1.4572490420756914
    x36        x93         0.61201593435117918
    x36        x94         -0.36751670908754486
    x36        x95         1.0228215108568821
    x36        x96         0.96468570660215125
    x36        x97         -2.0884579882914358
    x36        x98         -0.42519491610592997
    x36        x99         -0.16773442305583067
    x37        x37         6.6108823353493698
    x37        x38         -1.7147841978311862
    x37        x39         0.054750987060164506
    x37        x40         1.6336179185324085
    x37        x41         1.4076301227882548
    x37        x42         -0.35639002406930609
    x37        x43         1.7084175248822531
    x37        x44         0.96788026635216939
    x37        x45         -0.56260379954889106
    x37        x46         -0.17878843011230175
    x37        x47         0.72836505463155576
    x37        x48         1.1970772667413723
    x37        x49         1.0851071986281318
    x37        x50         1.3124760872853118
    x37        x51         -1.6850459122325294
    x37        x52         -0.073578757125910971
    x37        x53         -1.9610554718562463
    x37        x54         -1.4245326408584196
    x37        x55         0.58025452201337202
    x37        x56         0.82885527260192127
    x37        x57         2.1457449009873661
    x37        x58         -0.74816837667655411
    x37        x59         -0.87314886496328614
    x37        x60         1.5834587396437332
    x37        x61         0.71060024769628916
    x37        x62         0.58146080333108163
    x37        x63         -0.022843538510319415
    x37        x64         2.0044945137028178
    x37        x65         -0.041665676769581501
    x37        x66         0.53473802328738984
    x37        x67         0.20433696239324894
    x37        x68         1.1344772505292628
    x37        x69         -0.50861501742689186
    x37        x70         -2.2317175732642798
    x37        x71         -0.23057464185283338
    x37        x72         -2.6510721943572975
    x37        x73         0.52648229298190596
    x37        x74         -0.082938663147721414
    x37        x75         -1.261102238522203
    x37        x76         -1.4898170078989443
    x37        x77         -0.38117747187628392
    x37        x78         -0.57436443850210628
    x37        x79         -1.5607770910597685
    x37        x80         -0.49291992800831619
    x37        x81         -1.0120775009839775
    x37        x82         -2.1587715936235701
    x37        x83         0.68194807912552413
    x37        x84         0.35980603892949881
    x37        x85         -3.6071633104615524
    x37        x86         0.026939534542004265
    x37        x87         -0.27956117937099884
    x37        x88         -0.17993669926208666
    x37        x89         0.7481693423017225
    x37        x90         -1.3417969371787839
    x37        x91         1.2731042040307394
    x37        x92         -3.6873839735513401
    x37        x93         -0.81826934054843758
    x37        x94         1.5251155636161255
    x37        x95         -1.453740164587862
    x37        x96         -0.38640228628485457
    x37        x97         -1.7655873492990954
    x37        x98         0.56886041685595057
    x37        x99         -0.064625789411557985
    x38        x38         7.1046226009499547
    x38        x39         0.049022862395706988
    x38        x40         -0.54861319213280646
    x38        x41         -0.579808421450837
    x38        x42         1.4031059985388419
    x38        x43         -1.016339491562479
    x38        x44         1.9781558171303473
    x38        x45         0.75387196853723903
    x38        x46         -1.1813685071277211
    x38        x47         -0.47479254652019387
    x38        x48         1.3590043924149482
    x38        x49         -1.0057449876581677
    x38        x50         0.5152153656597358
    x38        x51         2.7459485061657904
    x38        x52         -1.9735700147555688
    x38        x53         -0.42930913072354299
    x38        x54         1.9693503875318628
    x38        x55         0.8065877739346371
    x38        x56         1.3633548894507665
    x38        x57         -1.2453331051490251
    x38        x58         0.20199145828688975
    x38        x59         -0.83871359673590284
    x38        x60         -1.0652446001990603
    x38        x61         1.203632899221891
    x38        x62         1.6023130845576088
    x38        x63         -0.74269928658242046
    x38        x64         -0.35822597774754811
    x38        x65         -0.79574051844724569
    x38        x66         -0.56867201094891695
    x38        x67         -0.70528671591309589
    x38        x68         -0.9580422769529976
    x38        x69         -0.19611938443569793
    x38        x70         0.68992777279001061
    x38        x71         0.89477799051804607
    x38        x72         2.2919814227142314
    x38        x73         -1.0807744353972786
    x38        x74         1.403324365935138
    x38        x75         -1.1599698621769525
    x38        x76         0.14165067155718319
    x38        x77         -0.73398052740512598
    x38        x78         2.5199582697543441
    x38        x79         0.5932579836759182
    x38        x80         -1.9838870532054003
    x38        x81         -1.4143743999259517
    x38        x82         -0.72129537693160517
    x38        x83         0.32377074134586503
    x38        x84         -0.082960798347803663
    x38        x85         0.38001477403960998
    x38        x86         2.2759505392253341
    x38        x87         -1.6167237876994276
    x38        x88         -0.38932893475959862
    x38        x89         0.80973359401379896
    x38        x90         0.67090657115882046
    x38        x91         1.7680686286324756
    x38        x92         -1.4130511818947127
    x38        x93         0.181983164027056
    x38        x94         -0.47535022670846611
    x38        x95         -1.4473713351287969
    x38        x96         -0.87721668510885953
    x38        x97         0.6172645735056832
    x38        x98         -0.17579169125229172
    x38        x99         -0.76298420474195694
    x39        x39         8.7307343504517867
    x39        x40         -1.3113095731468456
    x39        x41         -1.3868138441639384
    x39        x42         1.710454224032923
    x39        x43         -0.87585056732168942
    x39        x44         0.7419595098253684
    x39        x45         -2.7792053910247478
    x39        x46         0.71176349150247542
    x39        x47         1.6351504113503035
    x39        x48         -3.2035610758989308
    x39        x49         3.0383477216094543
    x39        x50         1.8438333177432704
    x39        x51         3.6515253107293901
    x39        x52         -0.33280583290022586
    x39        x53         0.57688584211277694
    x39        x54         -1.7398679808369795
    x39        x55         1.8496606170090204
    x39        x56         -1.75924475061076
    x39        x57         -0.56832624125738473
    x39        x58         2.188391479340579
    x39        x59         -2.6844606752125233
    x39        x60         -1.2184196975525048
    x39        x61         0.19391082669611151
    x39        x62         2.557188326670782
    x39        x63         1.6449630767533114
    x39        x64         1.2409131716413506
    x39        x65         -0.97017773570920618
    x39        x66         -1.6532979334616384
    x39        x67         0.18137992061369237
    x39        x68         1.5441230069602945
    x39        x69         -1.5583682092456863
    x39        x70         -0.62545666615485873
    x39        x71         -1.0281105528660166
    x39        x72         -0.056215561413052097
    x39        x73         -0.50934417816767819
    x39        x74         -2.6579094617327348
    x39        x75         0.74004872589733572
    x39        x76         0.95536178466615396
    x39        x77         2.7532523815960555
    x39        x78         0.50882706283742007
    x39        x79         -2.6146870459313787
    x39        x80         1.5008847734570265
    x39        x81         0.99642106015036469
    x39        x82         -0.32708531684532272
    x39        x83         1.9750708734251137
    x39        x84         -1.5980455177089834
    x39        x85         -1.5429833361419945
    x39        x86         -0.50208086368121696
    x39        x87         -1.2240074929299001
    x39        x88         2.2106992868301116
    x39        x89         0.43309608745599026
    x39        x90         -1.9762761576277235
    x39        x91         -0.78213862053214267
    x39        x92         -1.0520758737256124
    x39        x93         3.5946043293848393
    x39        x94         0.79403158557137543
    x39        x95         0.08378345606866304
    x39        x96         0.64217415833991864
    x39        x97         -2.2254863649755743
    x39        x98         0.1592714691986114
    x39        x99         1.1778819352488463
    x40        x40         7.3214751171205226
    x40        x41         2.2613757654410938
    x40        x42         -1.9308794612847808
    x40        x43         1.2906518449069402
    x40        x44         -1.1334590525699515
    x40        x45         -1.0131878869022595
    x40        x46         -1.2895141757375972
    x40        x47         -1.4419543943843249
    x40        x48         1.0643631924979646
    x40        x49         -2.3628291187856778
    x40        x50         0.95560849932526903
    x40        x51         -1.112727585244957
    x40        x52         -1.0672279786821601
    x40        x53         1.1930372757628656
    x40        x54         -0.55955242764602875
    x40        x55         -0.94252455542284375
    x40        x56         0.57766817294427597
    x40        x57         1.7849683525284896
    x40        x58         0.029333311769585254
    x40        x59         0.0150928506479493
    x40        x60         1.1152550974464583
    x40        x61         -0.080501235430644691
    x40        x62         2.9026645788490213
    x40        x63         -1.120481861451319
    x40        x64         2.3107255012383225
    x40        x65         -2.3718643233525496
    x40        x66         0.79777487466445207
    x40        x67         -1.5764354035482684
    x40        x68         0.75854800806792899
    x40        x69         0.66406052285122819
    x40        x70         -2.0960433364646271
    x40        x71         -1.3042622976727796
    x40        x72         -0.15510521494978907
    x40        x73         2.3221004713155518
    x40        x74         -0.46510820040227269
    x40        x75         -2.0727308557389135
    x40        x76         -3.631461462763212
    x40        x77         -1.5058395483440328
    x40        x78         1.7008440951943604
    x40        x79         -0.11581996684981256
    x40        x80         1.0000664889627671
    x40        x81         0.89904306884342411
    x40        x82         -2.876705369624764
    x40        x83         1.0424622214019663
    x40        x84         -0.62250735542976676
    x40        x85         -2.0676595944782834
    x40        x86         0.89069292847834025
    x40        x87         0.69481234358568478
    x40        x88         -1.3601365716266067
    x40        x89         -1.6194217709015584
    x40        x90         -0.7828084504596704
    x40        x91         0.9844218176184325
    x40        x92         -0.46782596545509059
    x40        x93         -0.8049751382035466
    x40        x94         -1.0447164045287072
    x40        x95         1.2845257867927555
    x40        x96         0.71276607273885728
    x40        x97         0.038572885194727437
    x40        x98         -0.70216901026168621
    x40        x99         -3.5533293946202122
    x41        x41         5.6544693442618614
    x41        x42         -1.0151573117284296
    x41        x43         1.9551396783438597
    x41        x44         0.30220387305971474
    x41        x45         -0.57276277531995057
    x41        x46         0.66844494772131613
    x41        x47         -0.2397058117164802
    x41        x48         1.9737311709500804
    x41        x49         -1.4708300823681177
    x41        x50         -0.34101281964434277
    x41        x51         -1.1547112439611995
    x41        x52         1.0070259999253488
    x41        x53         0.80804405312658023
    x41        x54         1.3465928661113857
    x41        x55         1.6492422278971841
    x41        x56         -1.0671477131420224
    x41        x57         1.0725039107634076
    x41        x58         -3.1085443374806805
    x41        x59         -0.26643399184454036
    x41        x60         0.79009140014488199
    x41        x61         0.8886380742410146
    x41        x62         1.0044080017307309
    x41        x63         -1.1804597658095533
    x41        x64         1.5351383397830551
    x41        x65         -0.60787310038590381
    x41        x66         0.66577696899642536
    x41        x67         -0.89014823278987887
    x41        x68         1.6499861077158864
    x41        x69         -0.8917700662054121
    x41        x70         -2.5102360364925449
    x41        x71         -0.10858633912529325
    x41        x72         0.26774670621907787
    x41        x73         0.82600534691084249
    x41        x74         -2.4010191685920645
    x41        x75         -1.2978293371022587
    x41        x76         -1.8561703908406695
    x41        x77         -1.7508264596877769
    x41        x78         0.60948643053795259
    x41        x79         -0.90137272266216562
    x41        x80         -2.2503351757316281
    x41        x81         -0.18871410902791505
    x41        x82         -1.9496003573902165
    x41        x83         1.2095934231805161
    x41        x84         -0.080893768271910388
    x41        x85         -0.60301972101185819
    x41        x86         0.46305509967374558
    x41        x87         0.20972499069783507
    x41        x88         0.7175112675838593
    x41        x89         -0.75590896274063091
    x41        x90         -1.4405955009563254
    x41        x91         2.206237923971698
    x41        x92         0.43216871385577593
    x41        x93         -1.9063772052535399
    x41        x94         0.36849600792452925
    x41        x95         0.7133516314938152
    x41        x96         -1.3540245846596348
    x41        x97         2.3418280963043676
    x41        x98         -0.9503915323134039
    x41        x99         0.67196015383290508
    x42        x42         8.8320824147856705
    x42        x43         0.87199958385308307
    x42        x44         -2.3612510324181266
    x42        x45         1.9665709819216071
    x42        x46         -2.2369575515142248
    x42        x47         1.9023485231537809
    x42        x48         1.5232513874577363
    x42        x49         1.992851620091908
    x42        x50         -1.6070738362719177
    x42        x51         -0.22476724924956543
    x42        x52         2.0590803692627575
    x42        x53         -0.53307378427540297
    x42        x54         -1.4513117638357322
    x42        x55         3.7148652136561582
    x42        x56         -1.0044965270619268
    x42        x57         -4.2692463931466795
    x42        x58         1.5700542088266509
    x42        x59         -0.26308612209668697
    x42        x60         -0.66340934392492235
    x42        x61         3.9094627339057482
    x42        x62         -0.69758895515523278
    x42        x63         -1.4407675260483139
    x42        x64         -2.3711273733540099
    x42        x65         3.923818750379751
    x42        x66         -2.8005376231698134
    x42        x67         -3.1767387103742304
    x42        x68         0.74286227801024918
    x42        x69         -2.7343506094706398
    x42        x70         0.66649282495960771
    x42        x71         2.7710042771388665
    x42        x72         -0.61931784507391729
    x42        x73         -0.51403764397470764
    x42        x74         1.175654217076209
    x42        x75         -0.62032715665165161
    x42        x76         2.4919697580108879
    x42        x77         -0.12400038595904531
    x42        x78         -0.23160250291748807
    x42        x79         0.95061566495882932
    x42        x80         -1.5162196906377796
    x42        x81         -0.64421968966724441
    x42        x82         1.873263993359396
    x42        x83         0.84869512089506316
    x42        x84         1.5942005505913535
    x42        x85         -0.35439502104870663
    x42        x86         -0.054405078370629759
    x42        x87         -0.95681892062572993
    x42        x88         -1.2881766936944277
    x42        x89         2.1884052723481489
    x42        x90         -0.24180566612334931
    x42        x91         2.1676590574850985
    x42        x92         -1.2589399169059619
    x42        x93         2.6682102117550328
    x42        x94         1.9524466976973043
    x42        x95         -2.317919598088098
    x42        x96         0.9760230167192594
    x42        x97         0.32106930987596105
    x42        x98         -1.7308303513262775
    x42        x99         1.1516629609776559
    x43        x43         5.8896253872141644
    x43        x44         -0.79693931234370052
    x43        x45         2.2587202243905575
    x43        x46         -0.47953111466605008
    x43        x47         2.3849364602837726
    x43        x48         2.7088200170770551
    x43        x49         0.54296441032526555
    x43        x50         -0.32765445795699982
    x43        x51         -1.4822210962742817
    x43        x52         1.5555582390435287
    x43        x53         -1.9725716851383208
    x43        x54         -1.0891069932462394
    x43        x55         -1.220956203022368
    x43        x56         -2.1812199825269487
    x43        x57         0.063569733360120603
    x43        x58         -1.5901894465680189
    x43        x59         -0.62656667900757379
    x43        x60         -1.0354316811560682
    x43        x61         1.401418888043602
    x43        x62         -1.513060925964649
    x43        x63         -1.5653285013830562
    x43        x64         0.46494219628090094
    x43        x65         -0.54680355974913597
    x43        x66         -0.47771112208367422
    x43        x67         -0.4238603174629893
    x43        x68         1.0574894097997198
    x43        x69         -1.9269764597489187
    x43        x70         -2.474939868882478
    x43        x71         1.0382790200654748
    x43        x72         -1.0063236171902541
    x43        x73         0.29265974845377618
    x43        x74         0.23177223169580571
    x43        x75         0.54966605876624919
    x43        x76         -1.0901916585594351
    x43        x77         -0.53024318755180744
    x43        x78         -1.3934201943359368
    x43        x79         -1.4225032609211588
    x43        x80         -0.59494974069879336
    x43        x81         -1.9092878808070795
    x43        x82         0.75895296278493729
    x43        x83         0.27662467591476692
    x43        x84         -0.25451945233474715
    x43        x85         -0.69320479199856022
    x43        x86         0.33443122828377519
    x43        x87         1.459626292230624
    x43        x88         0.031568480308908263
    x43        x89         0.52746502570620202
    x43        x90         -0.69920199511410741
    x43        x91         -0.48587231154573773
    x43        x92         0.313470952953321
    x43        x93         -1.8551604945815177
    x43        x94         0.98654829509588571
    x43        x95         -0.55971055053282515
    x43        x96         0.97244331277444118
    x43        x97         0.97500516106338075
    x43        x98         -2.1082334894729184
    x43        x99         -0.31315345600066363
    x44        x44         9.7762385635892972
    x44        x45         -1.6291906881979339
    x44        x46         -0.78371859542562516
    x44        x47         -0.60321414158805475
    x44        x48         -0.31145858255389441
    x44        x49         -0.89982767734865798
    x44        x50         1.8345658450522235
    x44        x51         0.71962762025422644
    x44        x52         0.047114575628807061
    x44        x53         -0.11610301288981481
    x44        x54         1.1739993607614863
    x44        x55         -1.5294064295675081
    x44        x56         0.044972771090446825
    x44        x57         1.3987755830314013
    x44        x58         -0.39252220704423263
    x44        x59         0.76871854334675471
    x44        x60         -1.3355050973804286
    x44        x61         -3.7484760804594912
    x44        x62         3.1569994248715876
    x44        x63         2.4859768688111359
    x44        x64         3.7323348502468678
    x44        x65         -3.5827283526193847
    x44        x66         -0.85905620445172215
    x44        x67         1.3573736329689343
    x44        x68         -0.70232706188904448
    x44        x69         1.7875249435679683
    x44        x70         -2.8177894326454291
    x44        x71         0.81394132020145349
    x44        x72         2.9403790370384151
    x44        x73         -1.737040485688967
    x44        x74         -2.5486570115115952
    x44        x75         -0.86639863939452721
    x44        x76         2.1675032327668959
    x44        x77         -2.3407991353794091
    x44        x78         2.7610311197280804
    x44        x79         1.6103133388987616
    x44        x80         -1.8428100026949112
    x44        x81         0.44901645303041715
    x44        x82         0.23417599765909838
    x44        x83         0.29402281569717204
    x44        x84         -1.7031534656061094
    x44        x85         2.6107493126912695
    x44        x86         -0.89978657763658354
    x44        x87         1.6422949794298702
    x44        x88         1.2660243078945261
    x44        x89         1.4352855738022214
    x44        x90         0.63494239665397068
    x44        x91         -0.20132697743013081
    x44        x92         -1.5530599176213176
    x44        x93         -1.12465128438284
    x44        x94         0.28352486145340566
    x44        x95         -0.21228379419939591
    x44        x96         -3.2074031485209606
    x44        x97         -2.8627466279670601
    x44        x98         0.14276547244058876
    x44        x99         1.6080749069510856
    x45        x45         8.2924888513616981
    x45        x46         -1.0895268156994393
    x45        x47         2.6521593480355672
    x45        x48         3.0964370305403035
    x45        x49         -0.74733474704312453
    x45        x50         -0.048654633092378927
    x45        x51         -1.0295461743382779
    x45        x52         1.6427049730427337
    x45        x53         -2.9279280550511877
    x45        x54         1.9292953925688099
    x45        x55         -0.70717776186199266
    x45        x56         -0.28552814393333159
    x45        x57         -4.3408026179178139
    x45        x58         -0.61096146742395607
    x45        x59         -0.59380095808281785
    x45        x60         -1.5421350846526762
    x45        x61         0.77188788447498236
    x45        x62         -2.0826585678787892
    x45        x63         -3.568241985917628
    x45        x64         -2.189633411614039
    x45        x65         1.8501229678901292
    x45        x66         -1.353485629800107
    x45        x67         -0.047343263652676174
    x45        x68         -0.79455394524909595
    x45        x69         0.75025077366434456
    x45        x70         -0.67191835624279772
    x45        x71         3.7742949511727599
    x45        x72         2.010469842666855
    x45        x73         0.580477737206613
    x45        x74         3.409767543165207
    x45        x75         1.4538739562672793
    x45        x76         0.44143981549754752
    x45        x77         0.1421648960183764
    x45        x78         -1.647532544627599
    x45        x79         -1.0039961818581038
    x45        x80         0.30268771233507935
    x45        x81         -1.5971799483714839
    x45        x82         0.68473205064174802
    x45        x83         -1.7109574452575553
    x45        x84         -1.177921435754242
    x45        x85         1.2926327336305288
    x45        x86         -1.2707764650801787
    x45        x87         0.68349709034345008
    x45        x88         -3.8339557651218712
    x45        x89         1.8221779589701697
    x45        x90         3.6984998049841522
    x45        x91         0.57665980249063253
    x45        x92         -0.43308793644689336
    x45        x93         -1.5685170201986824
    x45        x94         1.0898552760839191
    x45        x95         -2.9777376259342123
    x45        x96         0.28736908250617821
    x45        x97         2.5125555206872829
    x45        x98         -1.3884938448857034
    x45        x99         -0.67049684889466143
    x46        x46         6.6744060267740446
    x46        x47         0.021219507376849526
    x46        x48         -1.0140325056638995
    x46        x49         1.9811283647768136
    x46        x50         0.39840963180117051
    x46        x51         1.0856005071860053
    x46        x52         -0.066295376543322931
    x46        x53         -0.52786468988463098
    x46        x54         0.60319229976907152
    x46        x55         1.500650852229892
    x46        x56         2.2048251270158512
    x46        x57         1.4211198132534011
    x46        x58         -0.57374006959660862
    x46        x59         -0.92931404522248151
    x46        x60         2.0111310478166207
    x46        x61         -0.91221180927090662
    x46        x62         0.049591472692223269
    x46        x63         0.39311431291596693
    x46        x64         -1.6798769001065506
    x46        x65         -0.95654881403722092
    x46        x66         1.4915790108102951
    x46        x67         2.3020609661485185
    x46        x68         -0.12267240717232958
    x46        x69         1.5165116110244574
    x46        x70         1.2079412234540559
    x46        x71         -2.8931602092056297
    x46        x72         -0.70417515547400122
    x46        x73         0.62471809389610367
    x46        x74         -1.7551974691517189
    x46        x75         1.1059073386514198
    x46        x76         -1.9937333787887401
    x46        x77         1.7132437401093876
    x46        x78         -2.2098456975034497
    x46        x79         -3.0472546142631898
    x46        x80         -0.5303732690336751
    x46        x81         0.23830858241541827
    x46        x82         -1.0678510491436295
    x46        x83         -0.31336258621730267
    x46        x84         0.12985897707830016
    x46        x85         -1.224498378520982
    x46        x86         1.4329455018770547
    x46        x87         -0.46135992991130553
    x46        x88         2.5881855684592607
    x46        x89         -0.98224542446029472
    x46        x90         -3.0965563237020781
    x46        x91         0.17232338842684478
    x46        x92         -0.19253388675904956
    x46        x93         0.17966256916858347
    x46        x94         -0.80173271024023796
    x46        x95         1.1216042270173465
    x46        x96         1.6878583087046228
    x46        x97         2.1673312352118024
    x46        x98         -0.023687794731863686
    x46        x99         -1.1562464288776306
    x47        x47         6.802610273207037
    x47        x48         -0.57494341090696466
    x47        x49         1.0877352273599024
    x47        x50         -0.59356514425603601
    x47        x51         -0.10373794225323503
    x47        x52         2.7751796260593937
    x47        x53         -1.4303182577481903
    x47        x54         -1.9318579696663281
    x47        x55         0.62213084881400216
    x47        x56         -1.6032095574487799
    x47        x57         -2.1421116634740747
    x47        x58         -0.23399033660730023
    x47        x59         -2.5344613422444175
    x47        x60         -0.75840632332536639
    x47        x61         0.61809152166922354
    x47        x62         -0.77982898845262638
    x47        x63         -0.76091925279168426
    x47        x64         -0.18510746560812227
    x47        x65         0.55060977387296051
    x47        x66         -2.0490392910149366
    x47        x67         0.12730053348348655
    x47        x68         0.17980569159241477
    x47        x69         -1.9172600621410816
    x47        x70         -2.1066683877444339
    x47        x71         2.0087630486549974
    x47        x72         -0.031028771401404556
    x47        x73         -1.0289015232224845
    x47        x74         0.20568524046439443
    x47        x75         0.40675230188459865
    x47        x76         0.55437307198974284
    x47        x77         1.6212764102193322
    x47        x78         -1.1091312528379014
    x47        x79         -2.3533484745598332
    x47        x80         -0.21837220649706138
    x47        x81         -0.4649563767567586
    x47        x82         0.039374736248052634
    x47        x83         -0.038256659093362878
    x47        x84         -2.4201261930577949
    x47        x85         -1.1090020012905066
    x47        x86         -1.4259328628693191
    x47        x87         0.15200289995221122
    x47        x88         -1.9986024333958485
    x47        x89         2.3976016300218843
    x47        x90         0.4799792826620139
    x47        x91         -2.1762494749154149
    x47        x92         -0.48758753764325641
    x47        x93         0.46379965460862527
    x47        x94         0.51658741407433695
    x47        x95         -3.6104106184484923
    x47        x96         0.70422274474808633
    x47        x97         -0.57568770784376844
    x47        x98         -1.0237565436656704
    x47        x99         0.13590768565777089
    x48        x48         7.5332759513507206
    x48        x49         -1.7100693269022591
    x48        x50         -0.33193830683125558
    x48        x51         -0.27205143321195585
    x48        x52         1.2634234863367735
    x48        x53         -2.9150623344194262
    x48        x54         2.3131720886924394
    x48        x55         -0.13655392801677618
    x48        x56         -0.89337180225271129
    x48        x57         -0.69582571326649301
    x48        x58         -1.706375051223225
    x48        x59         0.3672852783426247
    x48        x60         1.3618526226539462
    x48        x61         1.5144293826000694
    x48        x62         -0.44647585384455996
    x48        x63         -4.341714125349597
    x48        x64         -1.073969124379597
    x48        x65         1.9904839351414256
    x48        x66         0.15639552777401355
    x48        x67         -1.8095810265887204
    x48        x68         2.3165444842556533
    x48        x69         0.85204906877170972
    x48        x70         -1.1180413572668417
    x48        x71         0.80943174567455367
    x48        x72         -0.22482586075856234
    x48        x73         2.1176080441192329
    x48        x74         1.1834512045625578
    x48        x75         -1.0775110871924658
    x48        x76         -0.21339628144366105
    x48        x77         -1.0844542900278995
    x48        x78         -0.87625531810978807
    x48        x79         1.2676984403379947
    x48        x80         -2.4263651599320384
    x48        x81         -2.1940793556269149
    x48        x82         -0.2760592309860358
    x48        x83         -0.40745209686060552
    x48        x84         0.3385511642478567
    x48        x85         0.0056248952542371829
    x48        x86         1.0065070481633303
    x48        x87         1.0698735983276304
    x48        x88         -2.1137334756523343
    x48        x89         1.2062208619395023
    x48        x90         0.47674216620097981
    x48        x91         1.6008912002795299
    x48        x92         0.55450604706319817
    x48        x93         -0.8484249311512887
    x48        x94         -0.11212473112384599
    x48        x95         -1.7021580032861037
    x48        x96         1.443882903143713
    x48        x97         3.2957653612052344
    x48        x98         -2.9083288766704252
    x48        x99         0.04247757863187452
    x49        x49         8.5024260328194927
    x49        x50         0.39230635457517826
    x49        x51         1.2473703565553167
    x49        x52         1.2930950940711612
    x49        x53         -1.6334982541607708
    x49        x54         -2.7426547805470878
    x49        x55         0.57393942103936668
    x49        x56         1.883890279008493
    x49        x57         -1.4316124264314793
    x49        x58         0.31441812928191526
    x49        x59         -1.3750948639517233
    x49        x60         0.98454772594198359
    x49        x61         2.292834733190289
    x49        x62         -0.56274559529071677
    x49        x63         2.6189644258843021
    x49        x64         -2.4501064905370948
    x49        x65         0.64729322128858557
    x49        x66         -2.7177007333046026
    x49        x67         1.3581600986839717
    x49        x68         -0.54381425644597192
    x49        x69         -0.037645208271915934
    x49        x70         0.61667748593387106
    x49        x71         0.8206017869513581
    x49        x72         -2.1440615414770159
    x49        x73         -0.84948863817496945
    x49        x74         0.92737427274545126
    x49        x75         0.60831157218496557
    x49        x76         -0.56870111738875051
    x49        x77         2.9336887448786459
    x49        x78         -0.46217770508668593
    x49        x79         -2.4228572388513094
    x49        x80         -0.42463221090771597
    x49        x81         -0.19909598598997175
    x49        x82         0.18440626908581495
    x49        x83         -0.23407176485652831
    x49        x84         1.019693180638058
    x49        x85         -1.6770828900301569
    x49        x86         0.70596446705074145
    x49        x87         -2.0673403780654263
    x49        x88         2.7984766473098115
    x49        x89         -1.0449345591906392
    x49        x90         -2.6014986264426883
    x49        x91         -0.00020297389978714275
    x49        x92         0.52365836611791627
    x49        x93         1.1649709493848288
    x49        x94         2.6173378342087998
    x49        x95         0.53047680005638398
    x49        x96         0.6189962635384072
    x49        x97         -0.67072800406220845
    x49        x98         1.9859108097641422
    x49        x99         -0.41242723312306795
    x50        x50         6.2793592301731129
    x50        x51         1.3773260654597812
    x50        x52         -2.5797487858508998
    x50        x53         -2.3021141596364854
    x50        x54         0.048070121334288909
    x50        x55         -2.2553215177645352
    x50        x56         1.4750708360382581
    x50        x57         -0.05754419059779612
    x50        x58         2.4332076398950679
    x50        x59         -1.6336572536280249
    x50        x60         -1.816730867453501
    x50        x61         -0.42333725283994766
    x50        x62         2.9907468452758472
    x50        x63         -0.061186235402521841
    x50        x64         1.7155724477309839
    x50        x65         -1.0571374408181118
    x50        x66         -0.063459574664645774
    x50        x67         -0.88197126542269833
    x50        x68         -0.3148184234002136
    x50        x69         -0.65760541558991481
    x50        x70         -2.4636391083497893
    x50        x71         -0.36431337240556855
    x50        x72         0.2338635174283103
    x50        x73         0.95873414638732035
    x50        x74         -0.50245062045761513
    x50        x75         -0.033731365494770238
    x50        x76         -0.3445966684493757
    x50        x77         0.37245561303311298
    x50        x78         0.52927833478986774
    x50        x79         -2.1311698060297797
    x50        x80         -0.021190785409583392
    x50        x81         -0.56806693829612598
    x50        x82         0.12895941450850004
    x50        x83         0.63369967769129687
    x50        x84         0.49286688340010182
    x50        x85         -1.7254378353221178
    x50        x86         -0.37460515278852813
    x50        x87         0.42461241576797959
    x50        x88         -0.20125150417941462
    x50        x89         -0.42407723259189006
    x50        x90         -0.40777625527611561
    x50        x91         1.1567094677409062
    x50        x92         -0.94380616077390045
    x50        x93         0.14351016513669684
    x50        x94         0.96456973610370922
    x50        x95         1.1112629435354624
    x50        x96         -2.1845309956507868
    x50        x97         -0.71043779152051179
    x50        x98         2.0681935448858413
    x50        x99         -0.079567748704207769
    x51        x51         7.1882218991639624
    x51        x52         -0.30895695823525976
    x51        x53         0.37494745120290585
    x51        x54         0.5716834562145281
    x51        x55         0.3196676077331384
    x51        x56         -0.80427374122478767
    x51        x57         -0.14920162007572443
    x51        x58         1.3176424885892624
    x51        x59         -3.5220911749781614
    x51        x60         -0.12010946551854067
    x51        x61         0.60742112269656778
    x51        x62         2.6012512827602312
    x51        x63         -1.0267196807065186
    x51        x64         -0.68986174111397391
    x51        x65         -1.1446699015234001
    x51        x66         -2.4172336683268734
    x51        x67         -0.065864689810192473
    x51        x68         1.5468491128405069
    x51        x69         -0.20998584304875012
    x51        x70         1.6134421676053945
    x51        x71         -1.7614691210152384
    x51        x72         0.94967552659863264
    x51        x73         1.6548593427562688
    x51        x74         0.13240661696634187
    x51        x75         0.72050963190052431
    x51        x76         0.17971802090625708
    x51        x77         2.9560391271139634
    x51        x78         2.5004785660118571
    x51        x79         -0.87344486585143366
    x51        x80         0.15451252127508622
    x51        x81         0.050922714935951033
    x51        x82         -1.801552037336136
    x51        x83         0.28028411983708446
    x51        x84         -0.98672520879596148
    x51        x85         -0.019813733609028685
    x51        x86         -0.0011554700974290462
    x51        x87         -1.0832053644345188
    x51        x88         0.28986470418597843
    x51        x89         0.31204911623741632
    x51        x90         -0.42635766728385327
    x51        x91         -0.71247087442624957
    x51        x92         0.88372757206076458
    x51        x93         2.5516309901213932
    x51        x94         -1.604999061817568
    x51        x95         -0.3870777831708006
    x51        x96         0.92130275162335806
    x51        x97         1.0658481480954678
    x51        x98         -0.69623640004646514
    x51        x99         -0.3525086668320539
    x52        x52         7.6276528662098695
    x52        x53         0.099925480867943034
    x52        x54         -1.1993601679168879
    x52        x55         2.1307775714870534
    x52        x56         -2.4556040266098935
    x52        x57         -2.9208726576652944
    x52        x58         -2.0332132969617009
    x52        x59         -0.10249655739662759
    x52        x60         0.6229664978993128
    x52        x61         0.58921953578739905
    x52        x62         -0.008224305817934232
    x52        x63         -2.4087477500833967
    x52        x64         -0.92773167254688171
    x52        x65         1.7485008341432533
    x52        x66         -4.4582087054577446
    x52        x67         -1.0728266584088211
    x52        x68         2.1304746107054671
    x52        x69         1.2144364097209428
    x52        x70         -1.6094115202651129
    x52        x71         1.3391675372996343
    x52        x72         -0.54743401086662091
    x52        x73         0.62377843042584968
    x52        x74         -0.87988393211804616
    x52        x75         -1.1573511387539372
    x52        x76         1.6931799159630072
    x52        x77         1.1107743981773179
    x52        x78         0.37956754028105671
    x52        x79         0.63220451852883253
    x52        x80         -1.6695489682708986
    x52        x81         2.0652192724543146
    x52        x82         -0.25785869434571923
    x52        x83         -1.0437427034280859
    x52        x84         -2.0572575865757332
    x52        x85         2.6595758789748727
    x52        x86         -2.153326349970671
    x52        x87         1.4420542086243584
    x52        x88         -1.4630308101448741
    x52        x89         0.98296459596813546
    x52        x90         1.1354834899810844
    x52        x91         -1.2632166669717952
    x52        x92         2.465050024527327
    x52        x93         1.7803499651460244
    x52        x94         -0.51297624552651488
    x52        x95         -2.6398154349222542
    x52        x96         1.7641555875609229
    x52        x97         1.5212444730488288
    x52        x98         -2.4426554233536146
    x52        x99         1.7237875550163573
    x53        x53         7.6061199890268245
    x53        x54         -1.2191750264143064
    x53        x55         2.9053704456127032
    x53        x56         -0.3563863001937021
    x53        x57         1.1038079192316765
    x53        x58         -0.4378678984049178
    x53        x59         1.0553328232509278
    x53        x60         0.14147251350488624
    x53        x61         -0.1002268152222439
    x53        x62         1.0182071546045257
    x53        x63         2.170291283826387
    x53        x64         0.96033683216574062
    x53        x65         -2.9849262734291546
    x53        x66         0.4312811631243148
    x53        x67         -0.061621740727984833
    x53        x68         -0.27538545028124939
    x53        x69         -0.57374021357049876
    x53        x70         0.73726938023047128
    x53        x71         -0.80933651637821935
    x53        x72         1.493198025520277
    x53        x73         0.23122691592082564
    x53        x74         -0.27044192711406967
    x53        x75         -0.092627195483186126
    x53        x76         0.2635441924997724
    x53        x77         -1.4333226082319239
    x53        x78         2.2000447923339226
    x53        x79         1.6330988433058371
    x53        x80         0.79878389591761956
    x53        x81         2.024062268742143
    x53        x82         -2.3844131300915206
    x53        x83         0.35933250132842959
    x53        x84         0.49175020252308899
    x53        x85         1.9542400382245342
    x53        x86         -1.6407806669202354
    x53        x87         -0.52134268378793946
    x53        x88         1.1977870411651923
    x53        x89         -0.042245943036299818
    x53        x90         -0.91026497027513664
    x53        x91         0.019895279726564741
    x53        x92         -0.36224765442096696
    x53        x93         0.45824360213956855
    x53        x94         -1.6581750386606793
    x53        x95         1.5625844608635688
    x53        x96         -0.70281404488894095
    x53        x97         -0.25351686567926329
    x53        x98         -0.59970985307131919
    x53        x99         -0.28099991141876757
    x54        x54         8.8106945882644112
    x54        x55         -1.1610369452337599
    x54        x56         -0.018757373824519443
    x54        x57         -0.345267396680706
    x54        x58         -2.151519164809041
    x54        x59         1.2686843604128639
    x54        x60         1.5170003626320336
    x54        x61         -2.2757417513771614
    x54        x62         -0.41641031480359447
    x54        x63         -2.8463878001671872
    x54        x64         -0.87247061223437772
    x54        x65         2.2912056748032921
    x54        x66         1.2591664740212447
    x54        x67         0.92923965478011938
    x54        x68         -2.5799571351268082
    x54        x69         1.9450055336975767
    x54        x70         0.96566167986512941
    x54        x71         1.1086659740921248
    x54        x72         3.4079583718002904
    x54        x73         0.40895871029088326
    x54        x74         -1.2924988884142947
    x54        x75         0.041276742811901815
    x54        x76         0.28813201601837851
    x54        x77         0.021929325047610748
    x54        x78         -0.078333570804148739
    x54        x79         -1.26415693513183
    x54        x80         -0.40951732562131249
    x54        x81         0.77377684734249885
    x54        x82         -0.63958857149775539
    x54        x83         0.11706738103021962
    x54        x84         -2.032453152084492
    x54        x85         1.4393033012870844
    x54        x86         2.1186287706087694
    x54        x87         -0.81927948075753654
    x54        x88         -1.6269294143142004
    x54        x89         1.7044891584783988
    x54        x90         2.0300111262184961
    x54        x91         2.7308852939236274
    x54        x92         0.67028355596959721
    x54        x93         -1.5837116412392613
    x54        x94         -1.2485334848516523
    x54        x95         2.886360543045706
    x54        x96         0.13448522569944157
    x54        x97         2.5598502820540849
    x54        x98         -0.13162551249775248
    x54        x99         1.1142020697017039
    x55        x55         10.308342234431205
    x55        x56         0.52684646274115787
    x55        x57         -2.0186501587529451
    x55        x58         -1.7390128069741793
    x55        x59         -0.32987465392426774
    x55        x60         0.90297149249772191
    x55        x61         3.2433233519574092
    x55        x62         0.95114106541912669
    x55        x63         -0.86465151718536326
    x55        x64         -0.49736196393745113
    x55        x65         0.16779382441731439
    x55        x66         -0.046199626881953906
    x55        x67         -0.82366678204736676
    x55        x68         2.9294789246389183
    x55        x69         0.29687489667476596
    x55        x70         0.012170897911481808
    x55        x71         -0.23406097557529196
    x55        x72         -0.85937182991847705
    x55        x73         -0.033432637215587951
    x55        x74         -0.88718948269150655
    x55        x75         -1.7049301507010115
    x55        x76         0.14217708995479736
    x55        x77         -0.27369024941765296
    x55        x78         -0.32630709835351412
    x55        x79         -0.7137847777750651
    x55        x80         -1.9609839707069474
    x55        x81         0.5020056458857538
    x55        x82         -3.1265519528545052
    x55        x83         0.89640076503370758
    x55        x84         1.1938812571337978
    x55        x85         -0.24240107777541481
    x55        x86         -0.12986081184493303
    x55        x87         -2.1050641470535609
    x55        x88         1.8685515208105132
    x55        x89         0.42826528852041557
    x55        x90         -2.0435509960595102
    x55        x91         3.4807223849077329
    x55        x92         -3.8081869896738239
    x55        x93         2.6172331451635253
    x55        x94         0.46598535386829326
    x55        x95         -3.9640619293607253
    x55        x96         0.63573343983375574
    x55        x97         1.9642633391319833
    x55        x98         -1.768019354683563
    x55        x99         0.93336253236622757
    x56        x56         8.2976437507688008
    x56        x57         -0.043717495701503968
    x56        x58         0.84890231039587871
    x56        x59         1.009154870226092
    x56        x60         2.7060832462720028
    x56        x61         0.054526928082599097
    x56        x62         1.4014422805100448
    x56        x63         1.9306090393199484
    x56        x64         -2.1057693105695376
    x56        x65         -0.66736811495237491
    x56        x66         1.5430388595344664
    x56        x67         1.1057276046813063
    x56        x68         -3.7047597091100966
    x56        x69         2.5514512956015931
    x56        x70         0.33780805659110069
    x56        x71         -0.3077327130506286
    x56        x72         0.27448721598430931
    x56        x73         -0.31883158488469426
    x56        x74         2.6062275485889077
    x56        x75         -1.4503458270164271
    x56        x76         -2.2483964223458419
    x56        x77         -0.40770307357185182
    x56        x78         -0.30290843630790515
    x56        x79         -1.2354954200746751
    x56        x80         -1.2840391649768934
    x56        x81         0.12179872128946614
    x56        x82         -2.5911374124143904
    x56        x83         -1.3720657385101811
    x56        x84         0.94154012498175788
    x56        x85         -2.2382603884547847
    x56        x86         1.8513230062479329
    x56        x87         -2.1961629979211259
    x56        x88         -0.30557047340448096
    x56        x89         -0.49740151449635772
    x56        x90         -1.8107400294802005
    x56        x91         2.0472294468933461
    x56        x92         -2.6833278911559133
    x56        x93         -0.47186400185361471
    x56        x94         0.17341818414520319
    x56        x95         1.1592151346216921
    x56        x96         -0.26398099004174985
    x56        x97         -0.0069441334156194251
    x56        x98         2.93091808601746
    x56        x99         -3.1319178136385299
    x57        x57         7.7993704525855572
    x57        x58         -0.14489528736918747
    x57        x59         0.30881889859598338
    x57        x60         1.9691548382829096
    x57        x61         -2.1246936429493473
    x57        x62         -0.33742121208303222
    x57        x63         2.2252418610795903
    x57        x64         2.2406222541530187
    x57        x65         -2.9927156823889201
    x57        x66         3.5559316862183876
    x57        x67         2.008587774127923
    x57        x68         0.49689100036125772
    x57        x69         -0.71554785421727851
    x57        x70         1.5106697309554102
    x57        x71         -4.1577682541274008
    x57        x72         -1.7940500094264609
    x57        x73         0.30328272421163627
    x57        x74         -1.5422082579923351
    x57        x75         0.7966819461532606
    x57        x76         -2.3931115420232283
    x57        x77         -1.336473974116489
    x57        x78         -0.074377567195051481
    x57        x79         0.48641891302430146
    x57        x80         0.71358052996112065
    x57        x81         -0.87829920303063458
    x57        x82         -1.2200368600141624
    x57        x83         0.79811076194110897
    x57        x84         1.401989261079698
    x57        x85         -2.2563089746146456
    x57        x86         1.4860234145726778
    x57        x87         0.50141418307129659
    x57        x88         2.5457765666609284
    x57        x89         -0.43420258497259434
    x57        x90         -2.6999033848862242
    x57        x91         -1.1834178860987548
    x57        x92         -1.3822458818812406
    x57        x93         -1.7921986027389436
    x57        x94         -1.4924202499694286
    x57        x95         2.417501038708632
    x57        x96         0.31759604491512927
    x57        x97         -1.825905398461684
    x57        x98         -0.00048303364877908678
    x57        x99         -0.93162078971627071
    x58        x58         6.7993528635522305
    x58        x59         -1.2427332731729315
    x58        x60         -0.79362586273328184
    x58        x61         -0.84171269864853648
    x58        x62         1.9978644389006119
    x58        x63         1.244834814819364
    x58        x64         -0.28612671327300754
    x58        x65         -0.16514355131033404
    x58        x66         -0.80014753892034907
    x58        x67         -1.360541871404352
    x58        x68         0.095722745265297837
    x58        x69         -1.1971096638005208
    x58        x70         1.833162195468923
    x58        x71         -1.2251576836374052
    x58        x72         0.067860138009522911
    x58        x73         0.84098273074685304
    x58        x74         0.28535773648582219
    x58        x75         1.3452471158258537
    x58        x76         0.30647525220890404
    x58        x77         -0.30989675874150491
    x58        x78         0.65866158885992998
    x58        x79         1.2822456037501886
    x58        x80         1.4047109610103055
    x58        x81         -0.067426679481513069
    x58        x82         1.7698494363557542
    x58        x83         0.53385394227254446
    x58        x84         1.8455651723385638
    x58        x85         -1.8000137752049374
    x58        x86         -0.92122689501216259
    x58        x87         0.83050615820764717
    x58        x88         -1.1319724928384338
    x58        x89         0.48732293311080599
    x58        x90         -0.50776682387326288
    x58        x91         -0.61948893606905453
    x58        x92         -1.1006173836641435
    x58        x93         2.105147227825471
    x58        x94         0.3255411580748353
    x58        x95         0.21548885836503226
    x58        x96         -0.080932164036893656
    x58        x97         -2.222554087480566
    x58        x98         0.25922438217326321
    x58        x99         -1.8135600589273417
    x59        x59         6.7793767110021372
    x59        x60         0.710704926189065
    x59        x61         -1.4063970445233307
    x59        x62         -2.3706969562281364
    x59        x63         0.64827336181158546
    x59        x64         -0.21432991797428333
    x59        x65         0.52443943397852943
    x59        x66         2.2182056167721629
    x59        x67         0.29219967134263009
    x59        x68         -2.2373569057420437
    x59        x69         1.936506809911922
    x59        x70         -0.37961778441698718
    x59        x71         0.63823948611423353
    x59        x72         -0.44902420177102365
    x59        x73         -1.5388276475199776
    x59        x74         0.13648692086829167
    x59        x75         -1.0173793911290541
    x59        x76         1.3957497955393703
    x59        x77         -2.4253988934755357
    x59        x78         -1.8293376687371763
    x59        x79         1.7763724290303802
    x59        x80         -0.99541854380728745
    x59        x81         1.0942725344556232
    x59        x82         1.2620208680308098
    x59        x83         -1.041327508166207
    x59        x84         1.7089082884666476
    x59        x85         2.6958591567207262
    x59        x86         1.1352532305840972
    x59        x87         0.66356630237981684
    x59        x88         1.0542329058746125
    x59        x89         1.14954485968076
    x59        x90         0.017850938709101826
    x59        x91         0.72427506079475013
    x59        x92         0.37459158893762901
    x59        x93         -0.57248003414424808
    x59        x94         -0.92732134383453058
    x59        x95         2.5875002773453621
    x59        x96         0.80284490179745371
    x59        x97         -0.44557021191091445
    x59        x98         0.30537067798630063
    x59        x99         1.7453845707427917
    x60        x60         9.1428677897199009
    x60        x61         -0.96963700960805932
    x60        x62         0.092930102050825136
    x60        x63         0.54966070751391838
    x60        x64         -2.1565469277214588
    x60        x65         1.2038999255237464
    x60        x66         1.8694994686909412
    x60        x67         1.0774333310213933
    x60        x68         -0.19020753185139985
    x60        x69         3.1907957882507594
    x60        x70         1.0597958851256364
    x60        x71         -0.31787557316577952
    x60        x72         -1.0858546500397956
    x60        x73         2.0844224995551226
    x60        x74         -0.31197113696682433
    x60        x75         -1.8842046324170876
    x60        x76         -2.1871547699944127
    x60        x77         1.0319089853108039
    x60        x78         -1.0704613506222427
    x60        x79         0.011376826148727121
    x60        x80         -1.1648756401378484
    x60        x81         0.78122990359650935
    x60        x82         -3.6997780347965352
    x60        x83         0.31854003212576121
    x60        x84         0.71197228007444824
    x60        x85         -3.4934282985225216
    x60        x86         1.8213513513969746
    x60        x87         -1.7835994399122006
    x60        x88         -1.1885676723724647
    x60        x89         2.3577295145291242
    x60        x90         -3.4621061114451459
    x60        x91         0.64886438822875991
    x60        x92         0.32737329611031696
    x60        x93         0.40200440620796929
    x60        x94         -1.4616591132659889
    x60        x95         0.29925153344424338
    x60        x96         2.9056452096575685
    x60        x97         0.70278578559397342
    x60        x98         -0.43790398923026097
    x60        x99         -3.266342604145521
    x61        x61         7.0474485141523555
    x61        x62         -1.0444998375356804
    x61        x63         -1.7300162362039655
    x61        x64         -1.6681017003844196
    x61        x65         2.1252205803778734
    x61        x66         -1.4766258460230217
    x61        x67         -2.7205275902746942
    x61        x68         1.3644487697463044
    x61        x69         -3.4946427454957645
    x61        x70         -0.21970010378744462
    x61        x71         1.0344391372144468
    x61        x72         -2.7363169708328563
    x61        x73         0.37858957807057142
    x61        x74         2.6947967117059322
    x61        x75         -1.1145681378684469
    x61        x76         -0.10334004816941744
    x61        x77         0.91078700222419451
    x61        x78         0.21018014680446651
    x61        x79         -0.92939941468825193
    x61        x80         -1.924831256662608
    x61        x81         -1.7966447859836256
    x61        x82         -0.56288232459762155
    x61        x83         0.30351307243270614
    x61        x84         2.7732871739313398
    x61        x85         -1.402876817148931
    x61        x86         0.55394427736025109
    x61        x87         -2.0320911946525282
    x61        x88         0.3946738703251545
    x61        x89         -0.66522626756700509
    x61        x90         -1.1439820931945162
    x61        x91         2.2542348544102322
    x61        x92         -0.13919059142861692
    x61        x93         0.98195527095498636
    x61        x94         1.3563689566923118
    x61        x95         -1.4831061170708344
    x61        x96         -0.253836319331673
    x61        x97         2.0863450285491596
    x61        x98         0.37676230333162025
    x61        x99         0.9759985339442927
    x62        x62         8.0448864477166708
    x62        x63         0.002108601646558645
    x62        x64         2.2838798972581196
    x62        x65         -2.4853471676319328
    x62        x66         -2.3190198407534495
    x62        x67         -1.7786776238100821
    x62        x68         1.5009510592034632
    x62        x69         1.461699344423552
    x62        x70         -2.2813864270323592
    x62        x71         -1.4316681687994472
    x62        x72         2.3554378251128383
    x62        x73         1.7833627350292334
    x62        x74         -2.4207592753474425
    x62        x75         -2.1974815506694023
    x62        x76         -1.1488499686705658
    x62        x77         -0.53080757645350318
    x62        x78         4.0552173714984256
    x62        x79         0.19432415561256494
    x62        x80         -0.64146618861606308
    x62        x81         1.9883208154290242
    x62        x82         -2.7928218072914217
    x62        x83         1.209211366934803
    x62        x84         -2.432460375290348
    x62        x85         -0.92386961582591987
    x62        x86         -0.76944381673225271
    x62        x87         0.40615268785499292
    x62        x88         -1.0863411252715096
    x62        x89         -1.3134403517801791
    x62        x90         -0.65120235919056668
    x62        x91         1.1714576091747992
    x62        x92         -1.0417902284704164
    x62        x93         1.9097433315729311
    x62        x94         -0.29990830305895227
    x62        x95         -0.22879462640460729
    x62        x96         -1.231088147783393
    x62        x97         -0.53356915043774122
    x62        x98         -0.25476600909704789
    x62        x99         -1.9110894402755398
    x63        x63         8.8207231565060304
    x63        x64         1.1055980953160625
    x63        x65         -3.6700922127868654
    x63        x66         2.1383689656587812
    x63        x67         3.0394719565317154
    x63        x68         -0.97786594771988822
    x63        x69         0.3814767496002664
    x63        x70         0.70719476513700807
    x63        x71         0.4105066688810991
    x63        x72         0.83960001625904801
    x63        x73         -2.7311322924218451
    x63        x74         -0.73269482945763342
    x63        x75         1.4130414504679396
    x63        x76         -0.82877146016011094
    x63        x77         -1.7146535724474674
    x63        x78         0.39181226036565858
    x63        x79         1.5534137944822657
    x63        x80         0.85615245607493329
    x63        x81         -0.74187902445468157
    x63        x82         0.77786813471730853
    x63        x83         0.72815283122924612
    x63        x84         1.7106745252423876
    x63        x85         -1.1055271839659859
    x63        x86         -0.54825198243145257
    x63        x87         -0.97114984571254681
    x63        x88         3.9578389728472354
    x63        x89         -1.5926696982444717
    x63        x90         -2.5135224308536448
    x63        x91         -1.4753950181689568
    x63        x92         -0.70008672379850923
    x63        x93         -1.7673564832209716
    x63        x94         2.7003302858394478
    x63        x95         0.97871766921329828
    x63        x96         -3.2365444727319623
    x63        x97         -3.926559635574232
    x63        x98         2.6395889157214012
    x63        x99         -1.5322492260949336
    x64        x64         6.2952478075760583
    x64        x65         -3.2916186616475818
    x64        x66         0.873097056203886
    x64        x67         -0.28677882033550128
    x64        x68         1.1870764161401941
    x64        x69         -0.65843428040757157
    x64        x70         -3.2419561168841429
    x64        x71         -0.17404496766777619
    x64        x72         0.21301544518540283
    x64        x73         -0.31304991877612826
    x64        x74         -2.9690613695675809
    x64        x75         -1.1477709437003509
    x64        x76         0.40890413626087502
    x64        x77         -1.5381418695197924
    x64        x78         1.7046111968834898
    x64        x79         0.28737381857613614
    x64        x80         0.91353894418065351
    x64        x81         0.41094046940115964
    x64        x82         0.054356267822783147
    x64        x83         1.9376960644316779
    x64        x84         -0.71425624203494109
    x64        x85         0.22312622916915859
    x64        x86         -0.94715718135414939
    x64        x87         1.5971613140519705
    x64        x88         1.1400208738590247
    x64        x89         -0.46744374398718824
    x64        x90         0.20449988777115363
    x64        x91         -0.058402524518742241
    x64        x92         -1.5340927325915776
    x64        x93         -0.89793146989396333
    x64        x94         0.16712439943856602
    x64        x95         -0.54162596955488707
    x64        x96         -2.3711826028672225
    x64        x97         -2.7556025144163883
    x64        x98         -0.031718917115397316
    x64        x99         0.50836863142205857
    x65        x65         9.3754300412822644
    x65        x66         -1.5309236498778422
    x65        x67         -2.6379477998913532
    x65        x68         -0.86620025658926958
    x65        x69         -1.4993971441311402
    x65        x70         1.4749679643715345
    x65        x71         1.5501304861279921
    x65        x72         -1.8556266919179178
    x65        x73         -0.0010730742246761174
    x65        x74         0.60795783013605842
    x65        x75         -1.1553014016361656
    x65        x76         2.6734080555403756
    x65        x77         2.1939575317406361
    x65        x78         -1.6799273738918179
    x65        x79         0.01765036531232525
    x65        x80         -1.0743662909331535
    x65        x81         0.74382255450839574
    x65        x82         2.3968055697152351
    x65        x83         -0.47267593645433276
    x65        x84         -0.3060136582145247
    x65        x85         -0.39541566150022162
    x65        x86         0.52794791050203826
    x65        x87         -1.1015575152706549
    x65        x88         -3.4361062751541378
    x65        x89         0.92047752657023107
    x65        x90         2.0806274825686835
    x65        x91         1.1115598189575198
    x65        x92         2.4406578601122737
    x65        x93         1.8839053556169147
    x65        x94         0.38638769315715205
    x65        x95         0.38797309747601694
    x65        x96         1.2043914243408465
    x65        x97         1.4826813603451605
    x65        x98         1.0843542188575397
    x65        x99         3.5588714772892884
    x66        x66         8.5915490506395589
    x66        x67         2.0298804341500412
    x66        x68         -0.73912507883289547
    x66        x69         0.9222111091708195
    x66        x70         0.18171568006223254
    x66        x71         -0.91068888365590162
    x66        x72         -0.5157447397331919
    x66        x73         -0.2814302775134348
    x66        x74         -0.46021798761826982
    x66        x75         0.44420898388546093
    x66        x76         -1.05050737429408
    x66        x77         -1.2876983936731925
    x66        x78         -3.8891721154490839
    x66        x79         0.0018260782385407237
    x66        x80         1.2848303121860547
    x66        x81         -2.105394603983517
    x66        x82         0.48830612214799307
    x66        x83         0.90104410308459137
    x66        x84         1.991774254944729
    x66        x85         -1.8428082879732273
    x66        x86         1.7779108086550108
    x66        x87         -0.32829930057992907
    x66        x88         2.0895268914712974
    x66        x89         -0.21703800152772426
    x66        x90         -2.3494912413894213
    x66        x91         0.29144388273695665
    x66        x92         -1.542577367261617
    x66        x93         -2.4912381042542706
    x66        x94         -0.24362680861607822
    x66        x95         0.85815017156790574
    x66        x96         -0.037149589810191862
    x66        x97         -0.18871437781221176
    x66        x98         0.44668533915243541
    x66        x99         -1.6705448856858871
    x67        x67         6.0299828332632055
    x67        x68         -0.83946252906186591
    x67        x69         2.7887357616551913
    x67        x70         1.7586765681873988
    x67        x71         -0.78348254889328317
    x67        x72         1.0866352559986663
    x67        x73         -1.6533025959755756
    x67        x74         0.19658087682337991
    x67        x75         2.5437927012778796
    x67        x76         -1.9465197256361366
    x67        x77         0.24324585597547774
    x67        x78         -1.5067553122289927
    x67        x79         -1.1933920227443751
    x67        x80         1.7121877915665786
    x67        x81         -0.64674036845168736
    x67        x82         -1.200634011846718
    x67        x83         -1.0514608643842032
    x67        x84         -1.3171521699481319
    x67        x85         -0.081154945641936996
    x67        x86         0.46177055427384178
    x67        x87         -0.81793522417267306
    x67        x88         2.4178025097831197
    x67        x89         -0.50271912462081891
    x67        x90         -0.10218326386858559
    x67        x91         -1.7153340568433151
    x67        x92         -1.3806226762631217
    x67        x93         -2.0852838890465417
    x67        x94         0.57229925440697871
    x67        x95         0.053504968339344601
    x67        x96         0.25225622259133068
    x67        x97         -1.0127669793345198
    x67        x98         0.71682559619916819
    x67        x99         -1.068365353044292
    x68        x68         9.816264185950434
    x68        x69         0.54535850433778099
    x68        x70         0.10009487457546157
    x68        x71         -2.8925644302638185
    x68        x72         -1.718014877023132
    x68        x73         1.4228981458430248
    x68        x74         -1.7651782668547711
    x68        x75         0.77622688388624439
    x68        x76         -2.0181900277236204
    x68        x77         -1.2555627227905428
    x68        x78         0.2173173156576228
    x68        x79         2.4582022111916277
    x68        x80         -1.0364182692269688
    x68        x81         -1.8126450753835339
    x68        x82         -1.3007484819145347
    x68        x83         0.47910837656147093
    x68        x84         0.95440115699959593
    x68        x85         -1.1719159778135462
    x68        x86         -1.8437528180389655
    x68        x87         1.1782335178456302
    x68        x88         1.5689201304804492
    x68        x89         -2.3388908004866131
    x68        x90         -0.58713362702455285
    x68        x91         -1.0299475125449082
    x68        x92         0.44781012322529923
    x68        x93         1.5646461143732826
    x68        x94         1.4543161086783645
    x68        x95         -4.8716499241352045
    x68        x96         -0.058618458423042169
    x68        x97         1.310351434721061
    x68        x98         -2.7753270416446041
    x68        x99         1.1776379831287309
    x69        x69         9.149440558424228
    x69        x70         0.21271143678679005
    x69        x71         -0.17123002289526837
    x69        x72         1.7815856398552996
    x69        x73         0.83714038691297665
    x69        x74         -0.32761366173571727
    x69        x75         -1.0217521222318517
    x69        x76         -1.1960133878316368
    x69        x77         0.45883811591542267
    x69        x78         -0.57121628368945299
    x69        x79         1.3470386207331388
    x69        x80         1.1107484549204816
    x69        x81         1.7445916802189614
    x69        x82         -1.8089493026151067
    x69        x83         -1.5452982393998764
    x69        x84         -2.6673275211292329
    x69        x85         1.735064075762208
    x69        x86         0.36015857377785543
    x69        x87         0.41133736052552916
    x69        x88         -0.12666941622906785
    x69        x89         -1.4939603239505581
    x69        x90         1.1240750741693863
    x69        x91         -0.6764700289771941
    x69        x92         0.47393816076802503
    x69        x93         0.16908049726654337
    x69        x94         -0.74950387732592372
    x69        x95         -1.6345631002964203
    x69        x96         2.0149504620021688
    x69        x97         0.54708188499673693
    x69        x98         -0.61184722303507932
    x69        x99         -2.9790746583506245
    x70        x70         8.7271937837765137
    x70        x71         -2.8749111947260375
    x70        x72         -0.27422294003512021
    x70        x73         -0.1931649648585928
    x70        x74         1.4282500071411279
    x70        x75         3.0324127292341507
    x70        x76         -1.2740181172997431
    x70        x77         0.30303002766440446
    x70        x78         0.2532092318673082
    x70        x79         2.0082524708069518
    x70        x80         1.825384848669126
    x70        x81         -0.44101071107851281
    x70        x82         0.69732123068034524
    x70        x83         -0.83191639795789851
    x70        x84         1.7285232503224972
    x70        x85         -0.24726546855961745
    x70        x86         1.3536991438667567
    x70        x87         -1.3032272611571183
    x70        x88         0.91996166949636193
    x70        x89         -1.3983772287982863
    x70        x90         0.7016540805294661
    x70        x91         -0.4312784140034544
    x70        x92         -0.26812714077029898
    x70        x93         0.50640289673290728
    x70        x94         -0.50508129321130013
    x70        x95         0.78642270651836987
    x70        x96         1.5898876257604202
    x70        x97         0.33883760353176334
    x70        x98         -0.16188564651190765
    x70        x99         -0.99479817747958954
    x71        x71         8.1903620935381909
    x71        x72         1.9497679010404649
    x71        x73         -0.63959551747394539
    x71        x74         1.4010707383831242
    x71        x75         -1.2183384590427595
    x71        x76         3.2219936161315967
    x71        x77         0.4873291193693568
    x71        x78         -0.00742681695452619
    x71        x79         -0.056107206707195115
    x71        x80         -0.1724562631659676
    x71        x81         -0.38968412603038444
    x71        x82         1.9598806404591769
    x71        x83         0.7711694529336296
    x71        x84         0.11814858577238799
    x71        x85         1.4985587914185334
    x71        x86         -1.147633656784991
    x71        x87         -0.50686670276342483
    x71        x88         -2.0990911452263257
    x71        x89         2.6543171865997905
    x71        x90         1.6095726061417577
    x71        x91         1.5367101389666931
    x71        x92         0.82625752471875824
    x71        x93         -1.6022146695423152
    x71        x94         2.11814682787915
    x71        x95         -1.5959272859415758
    x71        x96         -2.1965684432271777
    x71        x97         -0.38007678507753678
    x71        x98         0.61936421445718992
    x71        x99         -0.44271835957216232
    x72        x72         7.3145740557659593
    x72        x73         -0.41138531448531279
    x72        x74         -0.47089290288335578
    x72        x75         1.1617023805086166
    x72        x76         0.22670551548330414
    x72        x77         -1.648604778314974
    x72        x78         2.1215570966380382
    x72        x79         0.80176151769959902
    x72        x80         0.71271316309741362
    x72        x81         0.69707608739819227
    x72        x82         -0.64714605726193053
    x72        x83         -0.15474704105136022
    x72        x84         -3.5902272414375629
    x72        x85         2.3499673406665371
    x72        x86         -1.2179220088127451
    x72        x87         0.23237644702819199
    x72        x88         -1.7102023670694504
    x72        x89         0.25807752161131081
    x72        x90         2.4225008055744084
    x72        x91         0.28035658092863919
    x72        x92         -0.091692200692120723
    x72        x93         -1.6265600505154822
    x72        x94         0.38894783767940955
    x72        x95         0.68342454470411684
    x72        x96         -2.1003704702222588
    x72        x97         0.53806541408326247
    x72        x98         -0.66997687773930625
    x72        x99         -1.1475022865144047
    x73        x73         5.5245244695991342
    x73        x74         0.15185973015274587
    x73        x75         -0.54509432499941179
    x73        x76         -0.36513816521128434
    x73        x77         1.5856730596431141
    x73        x78         0.40965872598945369
    x73        x79         -0.070495025726642097
    x73        x80         1.0578997731959858
    x73        x81         0.52813580985560105
    x73        x82         -1.3922256961278161
    x73        x83         0.56404358231785712
    x73        x84         0.48731934491127826
    x73        x85         -0.75074555525260089
    x73        x86         -0.83195172625889346
    x73        x87         0.99476281170095049
    x73        x88         -1.9844384469201803
    x73        x89         0.40061709482294339
    x73        x90         -0.80644158454508807
    x73        x91         0.79104705336140735
    x73        x92         0.92790273969046033
    x73        x93         0.89576983190912229
    x73        x94         -1.6129678986665901
    x73        x95         0.096579652538455671
    x73        x96         1.7585301674196019
    x73        x97         2.1415257457268719
    x73        x98         -1.9106517764788102
    x73        x99         -2.6620941207132551
    x74        x74         8.0248674775863904
    x74        x75         0.87160943079184472
    x74        x76         -0.34219711782906503
    x74        x77         0.34938120218887614
    x74        x78         -0.3757657684226684
    x74        x79         0.43110351049813611
    x74        x80         0.31673287562561903
    x74        x81         -2.0305093439822692
    x74        x82         -1.4850921224373426
    x74        x83         -2.8064009991650445
    x74        x84         1.17714676060426
    x74        x85         -0.076562030648330323
    x74        x86         -0.68817189468076234
    x74        x87         -1.4901092526433097
    x74        x88         -2.4414195405537757
    x74        x89         0.9332902210181484
    x74        x90         1.8930324305871855
    x74        x91         -0.53031956890560383
    x74        x92         -1.1960546308786555
    x74        x93         -0.69013823520214423
    x74        x94         0.02188822626685857
    x74        x95         -1.3091531739234616
    x74        x96         0.43596105451425099
    x74        x97         0.66017884964750551
    x74        x98         1.0640771098761181
    x74        x99         -1.0678999134384337
    x75        x75         5.9449208643878055
    x75        x76         -1.0451211730044132
    x75        x77         -0.59303126991702504
    x75        x78         -1.353461653119493
    x75        x79         -0.23227441753040073
    x75        x80         1.9600510097597672
    x75        x81         -1.7751381051349762
    x75        x82         1.1365943775493794
    x75        x83         -0.92601904868168294
    x75        x84         0.61043063799107533
    x75        x85         0.25130457782001681
    x75        x86         -1.3204880692309342
    x75        x87         0.52939978027361401
    x75        x88         1.3937245829566851
    x75        x89         -0.42191423310291487
    x75        x90         0.7373199869795799
    x75        x91         -1.6597310437836654
    x75        x92         -0.42194038016715613
    x75        x93         -1.4136780761768488
    x75        x94         1.3045861644030881
    x75        x95         0.72119807989001172
    x75        x96         -0.47406461560383351
    x75        x97         0.15593991774028132
    x75        x98         -0.43377114346456969
    x75        x99         0.42410821854075875
    x76        x76         8.3867551834842917
    x76        x77         1.8792910442179802
    x76        x78         -0.36951495521916444
    x76        x79         1.6992624782139407
    x76        x80         0.32526436795336844
    x76        x81         1.2247511207455437
    x76        x82         4.5527391295865991
    x76        x83         0.31523709406654776
    x76        x84         -0.27848343996438679
    x76        x85         4.3182812185391306
    x76        x86         -2.0556770903059065
    x76        x87         1.3899402068057944
    x76        x88         -1.081541252797442
    x76        x89         2.7121140790855778
    x76        x90         1.8835156133181978
    x76        x91         -0.66715085518826012
    x76        x92         1.6378144312088125
    x76        x93         1.8970125824333357
    x76        x94         -0.88393490780571249
    x76        x95         -0.39460454764426717
    x76        x96         -0.37730930510611993
    x76        x97         -1.1127559263579287
    x76        x98         -0.39393169072401824
    x76        x99         3.3729177787639859
    x77        x77         7.5387161098112028
    x77        x78         -0.97857214556346561
    x77        x79         -3.1199810239298524
    x77        x80         2.4973825384686865
    x77        x81         1.4219509776823642
    x77        x82         0.51206982464551343
    x77        x83         0.19091946005813609
    x77        x84         -2.4043632076612647
    x77        x85         -0.29638339035101929
    x77        x86         0.29616578714778974
    x77        x87         -1.1653076681282797
    x77        x88         -0.80753750856617479
    x77        x89         -0.011438351534481752
    x77        x90         0.043793044352229173
    x77        x91         -1.7135457049640188
    x77        x92         2.5076623584350601
    x77        x93         2.4651350717161109
    x77        x94         -1.5693223639507545
    x77        x95         -0.16943035070597276
    x77        x96         3.0047022641213919
    x77        x97         0.5345234461074011
    x77        x98         0.67505824711338691
    x77        x99         -0.7974656677380868
    x78        x78         6.9791747857916535
    x78        x79         1.8531805356182713
    x78        x80         -0.65076241115127165
    x78        x81         1.5160966475458326
    x78        x82         -1.8525913335736808
    x78        x83         0.64415939645455911
    x78        x84         -1.0189882066827041
    x78        x85         1.0027271625124219
    x78        x86         -0.70492620032900377
    x78        x87         -0.32085805449013954
    x78        x88         -0.92158133644700779
    x78        x89         -1.1551751639337486
    x78        x90         1.4234669929880641
    x78        x91         0.84467404913109345
    x78        x92         0.31915428994204725
    x78        x93         0.37991311583727849
    x78        x94         -0.31618361985509214
    x78        x95         0.33971529767666903
    x78        x96         -2.4671678294680133
    x78        x97         -0.90453097530979498
    x78        x98         0.45106494546683373
    x78        x99         -0.5374101057011651
    x79        x79         8.1185692722584228
    x79        x80         -0.35047151635260348
    x79        x81         -0.41528811539379584
    x79        x82         2.2350475335375806
    x79        x83         -0.49457644622332875
    x79        x84         1.4234922014481839
    x79        x85         2.477387437154817
    x79        x86         -1.6696987540751016
    x79        x87         1.869815900325597
    x79        x88         -0.58228360338305929
    x79        x89         -1.2413957059404825
    x79        x90         1.693161117076514
    x79        x91         -1.548418883766711
    x79        x92         1.7389637389474706
    x79        x93         -0.025023893763490446
    x79        x94         0.19642713030411285
    x79        x95         -1.8148311739521636
    x79        x96         -1.338821931895211
    x79        x97         -1.1004348165586451
    x79        x98         -1.3421240052560286
    x79        x99         -0.02079519586288768
    x80        x80         7.4499630298900748
    x80        x81         0.99721686429712397
    x80        x82         1.4636256703339163
    x80        x83         0.50837341575855544
    x80        x84         -2.4575430763484234
    x80        x85         0.32076568960607821
    x80        x86         -1.0683922637571404
    x80        x87         0.59860338618115172
    x80        x88         -0.47620131139202654
    x80        x89         -1.8667255944600771
    x80        x90         1.9985811795906123
    x80        x91         -2.2658885552748038
    x80        x92         -0.1527743266644396
    x80        x93         -0.15534337247199623
    x80        x94         -0.27522076248952693
    x80        x95         0.53331536765648768
    x80        x96         1.429796840901858
    x80        x97         -1.9889642406610168
    x80        x98         -0.079669210501937274
    x80        x99         -2.8709704137435077
    x81        x81         5.439637572032729
    x81        x82         -0.7460597042652678
    x81        x83         -0.050973793115173915
    x81        x84         -2.694630891716538
    x81        x85         1.9602788009903926
    x81        x86         -0.46798787221529026
    x81        x87         0.30913881856951475
    x81        x88         -1.1718029178663234
    x81        x89         -0.057241448183193863
    x81        x90         0.89338382395268279
    x81        x91         -0.16041227089088778
    x81        x92         1.3613531349059584
    x81        x93         2.1506245215256277
    x81        x94         -2.1193286045369
    x81        x95         2.2032179047470346
    x81        x96         1.4218999985266492
    x81        x97         -0.55206488024064648
    x81        x98         0.28178617749779322
    x81        x99         0.36039820521170246
    x82        x82         9.5427139353993429
    x82        x83         0.90736479811829251
    x82        x84         1.4375116729476209
    x82        x85         2.7740262625935883
    x82        x86         -0.071247868344207696
    x82        x87         2.6684964723573557
    x82        x88         1.1254948590529601
    x82        x89         -1.2221947674480198
    x82        x90         1.2650764919425008
    x82        x91         -1.4686627596728719
    x82        x92         3.2533842462471338
    x82        x93         -0.34777708662289231
    x82        x94         1.3449357275721061
    x82        x95         0.71904525697579214
    x82        x96         -0.78074116895196388
    x82        x97         -1.2836653613857787
    x82        x98         -0.027284816287028786
    x82        x99         1.3179479077600353
    x83        x83         3.9626551492925488
    x83        x84         0.97623378420902751
    x83        x85         -1.5698730317929528
    x83        x86         0.89372439904290668
    x83        x87         -0.15576037841356347
    x83        x88         1.1050416903983182
    x83        x89         0.21922570699997104
    x83        x90         -1.940053337407134
    x83        x91         1.5925115542724411
    x83        x92         -0.42360821369550722
    x83        x93         0.10504367732268446
    x83        x94         0.63778712199380372
    x83        x95         0.20586355959359406
    x83        x96         -0.70174722193118866
    x83        x97         -0.88388170824781864
    x83        x98         -0.49743848187397838
    x83        x99         -1.0977496035892205
    x84        x84         10.287491318247209
    x84        x85         -1.6089023967858826
    x84        x86         0.88357250816328814
    x84        x87         -0.38311492628369387
    x84        x88         3.1805885486065621
    x84        x89         1.3154622480193459
    x84        x90         -3.7605899239521809
    x84        x91         3.1513253354762298
    x84        x92         -1.0047479496677332
    x84        x93         -0.51862745319527881
    x84        x94         1.1960441522362069
    x84        x95         0.3865717881459077
    x84        x96         -1.6926917540728232
    x84        x97         0.37175178650672336
    x84        x98         0.70795853590740332
    x84        x99         -0.022375057462037183
    x85        x85         8.358984090102803
    x85        x86         -1.8354623095555815
    x85        x87         2.2374851570785337
    x85        x88         0.36076436642508469
    x85        x89         -0.30173498013174344
    x85        x90         3.6074144493352116
    x85        x91         -1.0896610691575273
    x85        x92         2.7864226634932123
    x85        x93         0.082241104629115505
    x85        x94         -1.5136893540914969
    x85        x95         0.66921655491401422
    x85        x96         -0.3265623160622379
    x85        x97         1.04132299503315
    x85        x98         -1.2933621306479679
    x85        x99         2.8016122179262468
    x86        x86         6.1026273261982809
    x86        x87         -1.5970895954215487
    x86        x88         1.7692132874406499
    x86        x89         -0.31507060108035734
    x86        x90         -2.2126806407955066
    x86        x91         1.9277120573893387
    x86        x92         -0.48279337633670583
    x86        x93         -0.3234749676336523
    x86        x94         -0.86165940704509481
    x86        x95         2.0958648014110337
    x86        x96         2.2107822399139097
    x86        x97         0.64424866904872036
    x86        x98         0.27445817836679171
    x86        x99         -1.467741128193548
    x87        x87         4.7082270510261841
    x87        x88         -0.51796593011954095
    x87        x89         -0.15903799849855943
    x87        x90         0.98514586632702461
    x87        x91         -1.7029030167307551
    x87        x92         1.2807857240140497
    x87        x93         -0.35649259929455202
    x87        x94         -0.72344023247054445
    x87        x95         -0.268941204077916
    x87        x96         0.2870456273766549
    x87        x97         -0.20437776350020626
    x87        x98         -2.1644665906204961
    x87        x99         0.037505269404219277
    x88        x88         8.4248600522887251
    x88        x89         -2.6645953804332718
    x88        x90         -3.6832382423634145
    x88        x91         0.5702402375996084
    x88        x92         -0.45878648909489211
    x88        x93         -0.67807563663757209
    x88        x94         1.5668345385065499
    x88        x95         1.4478122119860453
    x88        x96         -0.9135031206298635
    x88        x97         -0.51590042989940721
    x88        x98         0.58872037054097215
    x88        x99         0.98012351341019122
    x89        x89         9.1673545353477568
    x89        x90         -0.9773867546157553
    x89        x91         0.89665833822525254
    x89        x92         -2.3813008641099325
    x89        x93         0.91068110849131023
    x89        x94         -1.9974829910314291
    x89        x95         -0.50333292564056309
    x89        x96         1.6368722384674033
    x89        x97         -0.64397807344255176
    x89        x98         -1.7548389246541105
    x89        x99         1.0380771644338251
    x90        x90         7.7771589663241381
    x90        x91         -1.4061441833961181
    x90        x92         0.91461702205753481
    x90        x93         -0.54795455891202238
    x90        x94         0.0065840536974794009
    x90        x95         -1.6233512315495466
    x90        x96         -1.1859074599177519
    x90        x97         -0.18038505436098226
    x90        x98         0.40550917154915578
    x90        x99         2.0532565654819299
    x91        x91         7.585502061694819
    x91        x92         -3.1048341022032662
    x91        x93         -0.4946028448048046
    x91        x94         1.331243035791708
    x91        x95         1.1600882905243188
    x91        x96         -1.6114084275347373
    x91        x97         1.8944308763613058
    x91        x98         0.46709991444223414
    x91        x99         0.052584314538149421
    x92        x92         10.026446080006499
    x92        x93         0.293725813921761
    x92        x94         -1.1147650479002347
    x92        x95         2.3602876611086656
    x92        x96         0.38705403605529864
    x92        x97         2.1533126865974879
    x92        x98         0.43155634621185768
    x92        x99         1.0326142998436978
    x93        x93         6.1218229078837174
    x93        x94         -1.6895242582238839
    x93        x95         -1.0592800004750262
    x93        x96         2.8225025488018356
    x93        x97         -0.24323451269323945
    x93        x98         -0.80827043509609564
    x93        x99         1.1888978373721568
    x94        x94         5.9671948434848492
    x94        x95         -1.3938935083328829
    x94        x96         -3.4389022358166157
    x94        x97         -0.93316750702402695
    x94        x98         1.5406257337336287
    x94        x99         0.5058703019733648
    x95        x95         10.576334021473949
    x95        x96         0.20673499622534092
    x95        x97         0.21378668697571315
    x95        x98         2.1920674386968275
    x95        x99         1.14372052754052
    x96        x96         8.0940893799601774
    x96        x97         1.1859288975747044
    x96        x98         -3.1073212409363533
    x96        x99         -1.9425528993476804
    x97        x97         6.714973322225255
    x97        x98         -1.6970219461983751
    x97        x99         0.21240219589897974
    x98        x98         6.2282837642284319
    x98        x99         1.3038713563609592
    x99        x99         9.9544325784203114
ENDATA
