NAME qp_50x25
ROWS
 N obj
 G c0
 G c1
 G c2
 G c3
 G c4
 G c5
 G c6
 G c7
 G c8
 G c9
 G c10
 G c11
 G c12
 G c13
 G c14
 G c15
 G c16
 G c17
 G c18
 G c19
 G c20
 G c21
 G c22
 G c23
 G c24
COLUMNS
    x0        obj        0.092037914429725642
    x0        c2         0.51070989346357365
    x0        c14         0.57585459477420475
    x0        c16         0.26173242295558752
    x1        obj        0.87969046056686695
    x1        c1         0.33496542564952908
    x1        c7         1.1518238988930851
    x1        c8         1.009672019125383
    x2        obj        0.53439513538524386
    x2        c21         0.9696716626987365
    x3        obj        0.35747261854930845
    x3        c22         0.7703855887555735
    x4        obj        0.79384090788355
    x4        c14         1.1171121957264951
    x4        c23         0.74624581777540311
    x5        obj        0.60125934857083785
    x6        obj        0.093807073023330023
    x6        c6         0.83332108564847984
    x6        c15         0.14088977772528444
    x7        obj        0.57396678568244475
    x7        c12         0.61125012498732423
    x8        obj        0.08203179673784744
    x8        c0         0.44634746340673215
    x8        c18         1.8223334939445421
    x9        obj        0.040629881581672356
    x9        c17         1.6169325267706456
    x9        c19         1.6760412026055176
    x9        c23         0.27073476779138794
    x10        obj        0.62078664201737699
    x10        c21         1.3569981367563964
    x11        obj        0.94293383653938168
    x11        c2         1.7575954195926675
    x11        c4         0.34123629186831539
    x11        c6         1.5075116862394704
    x11        c13         1.1424130419561596
    x11        c16         0.83389830475711391
    x12        obj        0.10897366179621626
    x12        c3         0.40763182524180464
    x12        c8         1.2684464971347069
    x12        c19         1.9751118509010999
    x12        c22         0.92451048612416653
    x13        obj        0.91403013629681329
    x13        c2         0.30470159943316388
    x13        c9         1.5248297882910193
    x13        c13         1.6503788432553852
    x13        c24         1.4121774866070105
    x14        obj        0.7017376431451996
    x14        c4         1.4578978414939576
    x14        c10         1.0147303890466166
    x14        c14         0.98795344916291639
    x15        obj        0.23574951726125082
    x15        c22         1.9994012513952462
    x16        obj        0.666448168555418
    x16        c0         0.27037012622079692
    x16        c14         0.3586255409257344
    x17        obj        0.53164323575607719
    x17        c0         1.0149475939174513
    x17        c15         1.7672209536832484
    x17        c21         0.60794171538237018
    x17        c22         0.28730347727236649
    x18        obj        0.38747036760451192
    x18        c0         1.5769287967882391
    x18        c3         1.3230126434442806
    x18        c5         0.24386645325318274
    x18        c11         0.65972637827750269
    x18        c13         0.41108276633133178
    x18        c20         0.48587581571058003
    x19        obj        0.022959116226162313
    x19        c8         0.51762109971957881
    x19        c10         0.48442373608352463
    x20        obj        0.93748245316330103
    x21        obj        0.043051871813346243
    x21        c2         0.36950466231093715
    x22        obj        0.83124451484130646
    x22        c3         0.64907324312326664
    x22        c10         1.2928718003129211
    x23        obj        0.24347459710666142
    x23        c3         1.771722093283735
    x24        obj        0.50232052503456925
    x24        c0         1.1957262314853692
    x24        c1         1.1097959180194206
    x25        obj        0.31736707443851353
    x25        c6         1.9053036754095474
    x25        c18         1.1404416474948489
    x26        obj        0.14890430113261177
    x26        c9         0.35362586371986116
    x26        c24         0.1490219406899721
    x27        obj        0.081564451820194339
    x27        c4         0.9078424132618883
    x27        c17         0.95329993977865823
    x28        obj        0.7133290969101056
    x28        c7         1.4411349933117095
    x29        obj        0.28607981112870984
    x29        c11         0.98179166633326354
    x29        c24         0.24045603062731216
    x30        obj        0.90648256093641844
    x30        c4         1.1143839151525785
    x30        c5         0.63704729819407446
    x30        c11         0.40222705780482448
    x30        c18         1.4424959599273548
    x31        obj        0.95301438067726529
    x31        c2         0.51558758090057411
    x32        obj        0.063645497557566433
    x32        c1         1.050293109369983
    x33        obj        0.1381184107797816
    x33        c7         1.977718654119309
    x33        c13         1.9645344646859844
    x33        c19         0.41052688493214851
    x33        c21         0.82980314935880173
    x33        c23         1.3843418441477995
    x34        obj        0.56989393502220986
    x34        c5         1.6177543574218067
    x34        c15         1.3466992909214075
    x35        obj        0.52130606905638321
    x35        c8         1.7518555480596529
    x35        c20         1.9681992871600205
    x36        obj        0.97243141683456702
    x36        c5         1.2421626625654041
    x36        c7         1.5998866691457707
    x36        c9         1.9821585843067242
    x36        c12         0.54101930208231808
    x36        c20         0.85216342988094385
    x37        obj        0.99633818724455092
    x37        c4         1.0624131531677814
    x37        c23         1.9168681885545928
    x38        obj        0.68911237906956302
    x38        c12         0.37975844968349215
    x38        c21         1.5313654130903485
    x39        obj        0.94232874907052611
    x39        c6         0.37904532775973954
    x39        c7         1.500398785949155
    x39        c17         0.77137244201223187
    x39        c19         0.18048994458226947
    x40        obj        0.78329600319929116
    x40        c13         0.37845509993435467
    x41        obj        0.87041048309365399
    x41        c12         0.44974158849234225
    x41        c19         1.2442835848116995
    x42        obj        0.51627557905587751
    x42        c15         0.72327540308385763
    x42        c22         0.66957996898315653
    x42        c24         0.75360062685521301
    x43        obj        0.80565065844422679
    x43        c3         0.54291634555558066
    x43        c24         0.18376012762085481
    x44        obj        0.42031179755329751
    x44        c9         0.16984528545832911
    x44        c17         1.0885084334634161
    x44        c20         0.30136987679348781
    x45        obj        0.32327749888027746
    x45        c11         1.6624832985249043
    x45        c15         1.7534492343107402
    x46        obj        0.23418256816614624
    x46        c9         1.4573479769769075
    x46        c18         0.65615629935286324
    x47        obj        0.85892548463006901
    x47        c1         1.3029739945753687
    x47        c5         1.1130375368428977
    x47        c10         0.38037872524975813
    x47        c16         0.44255824203001215
    x47        c18         1.9942502303092415
    x47        c20         1.3049349418621377
    x47        c23         0.56335739959901743
    x48        obj        0.20848706504361403
    x48        c6         1.454379410935708
    x48        c14         1.8921559914702182
    x48        c16         0.20068049884968317
    x49        obj        0.78748255470283435
    x49        c12         0.6848071766521775
    x49        c16         1.0797583831543087
RHS
    rhs       c0         1.8017280847274355
    rhs       c1         1.5192113790457205
    rhs       c2         1.3832396622803667
    rhs       c3         1.8777424602594672
    rhs       c4         1.9535094459778088
    rhs       c5         1.9415473233109464
    rhs       c6         2.4318244743971782
    rhs       c7         3.0683852005676115
    rhs       c8         1.8190380656157288
    rhs       c9         2.195122999501137
    rhs       c10         1.2689618602771284
    rhs       c11         1.482491360376198
    rhs       c12         1.0666306567590618
    rhs       c13         2.2187456864652861
    rhs       c14         1.9726807088238276
    rhs       c15         2.2926138638898155
    rhs       c16         1.1274511406986822
    rhs       c17         1.7720453368099809
    rhs       c18         2.8222710524115406
    rhs       c19         2.1945813871330944
    rhs       c20         1.9650173405628679
    rhs       c21         2.1183120309146615
    rhs       c22         1.8604723090122037
    rhs       c23         1.9526192071472803
    rhs       c24         1.095606484960145
BOUNDS
 LO bnd       x0         0
 UP bnd       x0         1
 LO bnd       x1         0
 UP bnd       x1         1
 LO bnd       x2         0
 UP bnd       x2         1
 LO bnd       x3         0
 UP bnd       x3         1
 LO bnd       x4         0
 UP bnd       x4         1
 LO bnd       x5         0
 UP bnd       x5         1
 LO bnd       x6         0
 UP bnd       x6         1
 LO bnd       x7         0
 UP bnd       x7         1
 LO bnd       x8         0
 UP bnd       x8         1
 LO bnd       x9         0
 UP bnd       x9         1
 LO bnd       x10         0
 UP bnd       x10         1
 LO bnd       x11         0
 UP bnd       x11         1
 LO bnd       x12         0
 UP bnd       x12         1
 LO bnd       x13         0
 UP bnd       x13         1
 LO bnd       x14         0
 UP bnd       x14         1
 LO bnd       x15         0
 UP bnd       x15         1
 LO bnd       x16         0
 UP bnd       x16         1
 LO bnd       x17         0
 UP bnd       x17         1
 LO bnd       x18         0
 UP bnd       x18         1
 LO bnd       x19         0
 UP bnd       x19         1
 LO bnd       x20         0
 UP bnd       x20         1
 LO bnd       x21         0
 UP bnd       x21         1
 LO bnd       x22         0
 UP bnd       x22         1
 LO bnd       x23         0
 UP bnd       x23         1
 LO bnd       x24         0
 UP bnd       x24         1
 LO bnd       x25         0
 UP bnd       x25         1
 LO bnd       x26         0
 UP bnd       x26         1
 LO bnd       x27         0
 UP bnd       x27         1
 LO bnd       x28         0
 UP bnd       x28         1
 LO bnd       x29         0
 UP bnd       x29         1
 LO bnd       x30         0
 UP bnd       x30         1
 LO bnd       x31         0
 UP bnd       x31         1
 LO bnd       x32         0
 UP bnd       x32         1
 LO bnd       x33         0
 UP bnd       x33         1
 LO bnd       x34         0
 UP bnd       x34         1
 LO bnd       x35         0
 UP bnd       x35         1
 LO bnd       x36         0
 UP bnd       x36         1
 LO bnd       x37         0
 UP bnd       x37         1
 LO bnd       x38         0
 UP bnd       x38         1
 LO bnd       x39         0
 UP bnd       x39         1
 LO bnd       x40         0
 UP bnd       x40         1
 LO bnd       x41         0
 UP bnd       x41         1
 LO bnd       x42         0
 UP bnd       x42         1
 LO bnd       x43         0
 UP bnd       x43         1
 LO bnd       x44         0
 UP bnd       x44         1
 LO bnd       x45         0
 UP bnd       x45         1
 LO bnd       x46         0
 UP bnd       x46         1
 LO bnd       x47         0
 UP bnd       x47         1
 LO bnd       x48         0
 UP bnd       x48         1
 LO bnd       x49         0
 UP bnd       x49         1
QUADOBJ
    x0        x0         3.064977823167256
    x0        x1         0.097685448911276951
    x0        x2         -0.41383333557835672
    x0        x3         -0.80997746793763481
    x0        x4         -1.3549669865516853
    x0        x5         -1.0457768619534511
    x0        x6         1.7707926365973561
    x0        x7         -0.0067340898103619316
    x0        x8         -0.32872772138171141
    x0        x9         -1.0445716796472135
    x0        x10         -0.027575584577931647
    x0        x11         -0.36823142054349034
    x0        x12         -0.63435210644943285
    x0        x13         -1.6667874453677558
    x0        x14         0.16114268975531207
    x0        x15         -0.68264770116493934
    x0        x16         1.5447946846746741
    x0        x17         -0.54942330072000756
    x0        x18         0.44834913779486829
    x0        x19         -0.58360861762303018
    x0        x20         1.3643214659609817
    x0        x21         -1.0397441302784334
    x0        x22         1.0078303807435804
    x0        x23         -0.5129196768296308
    x0        x24         0.19323779759927856
    x0        x25         -0.53506908833190825
    x0        x26         -0.59392697372126213
    x0        x27         -0.85675590088342291
    x0        x28         -0.26742545541851281
    x0        x29         0.79218212822854606
    x0        x30         0.88077076564003076
    x0        x31         0.85794727087586709
    x0        x32         0.59013497091757683
    x0        x33         1.1895704008112589
    x0        x34         0.85075448568360978
    x0        x35         -0.78983913471730594
    x0        x36         0.71212606560434566
    x0        x37         -0.36106866979611657
    x0        x38         -1.9542734513785753
    x0        x39         0.31789475233120457
    x0        x40         0.38606369362150444
    x0        x41         0.57163537517851482
    x0        x42         1.9248759395748118
    x0        x43         0.94054310989310652
    x0        x44         -0.7726826814869332
    x0        x45         0.10684681588357144
    x0        x46         -0.78130289132346054
    x0        x47         0.22160444885407202
    x0        x48         1.5756736910068252
    x0        x49         0.39371272061605395
    x1        x1         4.6443147844949131
    x1        x2         0.94244565586620199
    x1        x3         0.88756783430926567
    x1        x4         0.68551510787142156
    x1        x5         1.0029507116351659
    x1        x6         0.037388911592037694
    x1        x7         -0.31504133004478119
    x1        x8         0.80829950360531022
    x1        x9         0.11233007854647492
    x1        x10         1.3748508769071937
    x1        x11         0.080534983827961176
    x1        x12         -1.5079845392626592
    x1        x13         -0.8167082432058399
    x1        x14         0.65663550161145334
    x1        x15         0.84445960246259477
    x1        x16         0.16198300395502527
    x1        x17         1.0968852580289039
    x1        x18         -1.2988098990187011
    x1        x19         0.41300224439778266
    x1        x20         0.30448004129206307
    x1        x21         -0.61436789560073712
    x1        x22         -0.54105992083100696
    x1        x23         -0.14039006581709296
    x1        x24         0.70724779462122955
    x1        x25         -0.62885135807862602
    x1        x26         -0.47068977167331505
    x1        x27         0.76384440400635667
    x1        x28         -0.6299601031409261
    x1        x29         0.51644438246199176
    x1        x30         0.44916834807927419
    x1        x31         0.76346827692181907
    x1        x32         -0.19587287268660922
    x1        x33         0.26780614713371842
    x1        x34         -0.67872214208266579
    x1        x35         1.0274011380398229
    x1        x36         -1.070483165866946
    x1        x37         -0.53260855143227714
    x1        x38         -0.2584669309415969
    x1        x39         0.24898639932110761
    x1        x40         0.10363525606309933
    x1        x41         -1.2317073435705719
    x1        x42         2.1551490009381955
    x1        x43         1.3604676515590854
    x1        x44         0.38599187782415662
    x1        x45         -1.8940916789647537
    x1        x46         0.13858868880452971
    x1        x47         0.80610692999067568
    x1        x48         0.2745100984334119
    x1        x49         -0.81581410340456517
    x2        x2         3.784663985171782
    x2        x3         -1.4590319761899528
    x2        x4         0.76031569025396495
    x2        x5         0.48594642998772136
    x2        x6         0.56990683282037768
    x2        x7         0.12067559999529565
    x2        x8         1.4175476907817781
    x2        x9         -0.43794240999920836
    x2        x10         0.98484942544618159
    x2        x11         0.41038890263099359
    x2        x12         0.22264984643088753
    x2        x13         0.17609217373794606
    x2        x14         -0.31300048549287107
    x2        x15         2.1711566732093939
    x2        x16         -0.30603769088488181
    x2        x17         -0.15443552907418898
    x2        x18         0.27694286108025867
    x2        x19         -0.29473428258191164
    x2        x20         0.79225172840532354
    x2        x21         0.94283580103048192
    x2        x22         0.12761520682887886
    x2        x23         -0.0053420260738167268
    x2        x24         -1.1088895322449221
    x2        x25         0.28175973795107645
    x2        x26         0.54068884537316675
    x2        x27         0.65993632673285962
    x2        x28         -1.2845839214176116
    x2        x29         0.048573492088430467
    x2        x30         0.96524004456333501
    x2        x31         1.1667827708609766
    x2        x32         1.9108021221733431
    x2        x33         -1.8496927133261307
    x2        x34         -1.6559347060486456
    x2        x35         0.41145320135354141
    x2        x36         -0.39959595645993673
    x2        x37         0.25365667921710017
    x2        x38         1.6216692957181549
    x2        x39         0.55912987228157085
    x2        x40         -1.6916396656703787
    x2        x41         -0.22552833537423037
    x2        x42         0.6941476196671853
    x2        x43         1.9633956784280919
    x2        x44         2.5480863319702785
    x2        x45         -1.6077253525248676
    x2        x46         -0.21973595212860669
    x2        x47         0.70227953195793957
    x2        x48         -0.18639018479868519
    x2        x49         0.41771616804590928
    x3        x3         5.5025596035391642
    x3        x4         1.6579658203339611
    x3        x5         2.0086249883354843
    x3        x6         -3.1860493344089309
    x3        x7         -0.18776021969225759
    x3        x8         -0.52173847447462052
    x3        x9         1.4812967628153404
    x3        x10         0.36543411792650737
    x3        x11         0.26933098747509499
    x3        x12         -0.92835575795948166
    x3        x13         -0.17193941478671387
    x3        x14         1.4220382322187135
    x3        x15         -0.050304516746066272
    x3        x16         -0.17222182403706815
    x3        x17         1.206269873687694
    x3        x18         -0.87123892129008229
    x3        x19         1.225772218722176
    x3        x20         -1.82781176910528
    x3        x21         0.5827842312260566
    x3        x22         -2.3981789864189911
    x3        x23         -0.82823245325561246
    x3        x24         1.4322849889321316
    x3        x25         1.3943012767836835
    x3        x26         0.43843481261779765
    x3        x27         0.55846412989625771
    x3        x28         -1.8540758911906017
    x3        x29         -1.5365009550279252
    x3        x30         -0.39637187338273577
    x3        x31         -0.23480016002493528
    x3        x32         -3.9116686184552094
    x3        x33         0.39294388318597595
    x3        x34         1.6257243578675713
    x3        x35         -0.15509631936963958
    x3        x36         -1.0784995090688356
    x3        x37         0.45528422593231377
    x3        x38         -0.89376703630477417
    x3        x39         -1.4045443357622704
    x3        x40         -0.53046827507878647
    x3        x41         0.28555827938084005
    x3        x42         0.23628270543633156
    x3        x43         -1.3704286510019807
    x3        x44         -1.3531428197038957
    x3        x45         0.18163921138552874
    x3        x46         2.3768711790863839
    x3        x47         -0.73389217252739003
    x3        x48         0.4700760087631391
    x3        x49         -1.7421329938168479
    x4        x4         3.9882247995049527
    x4        x5         1.1936106347232265
    x4        x6         -2.4566484700656557
    x4        x7         -0.18967714929026416
    x4        x8         1.1613386411392366
    x4        x9         0.19491082934782999
    x4        x10         0.2238918818160755
    x4        x11         1.4605107390669045
    x4        x12         0.05258698270828184
    x4        x13         0.3539316496284674
    x4        x14         0.27793569128730894
    x4        x15         1.9068924740710886
    x4        x16         -1.2049353973431809
    x4        x17         0.64607965500290043
    x4        x18         0.46824660223426556
    x4        x19         0.73255859037032323
    x4        x20         -1.6661475011411047
    x4        x21         0.16277817549229984
    x4        x22         -1.2499188658365261
    x4        x23         -0.26182830141954644
    x4        x24         0.35752977350303089
    x4        x25         2.1376436002692727
    x4        x26         1.6694076554299913
    x4        x27         0.70355069453970143
    x4        x28         -1.728494511648516
    x4        x29         -2.082238907123557
    x4        x30         0.86084324065632567
    x4        x31         0.10266658690845773
    x4        x32         -0.86769503536980075
    x4        x33         -1.4524871077217603
    x4        x34         0.23328813373463494
    x4        x35         -0.32846764878090334
    x4        x36         -0.89701758586438707
    x4        x37         0.26518391798121738
    x4        x38         1.3043152548396841
    x4        x39         0.055164191355679529
    x4        x40         -0.56543065393502379
    x4        x41         0.11794316776735676
    x4        x42         0.42095576522057021
    x4        x43         -0.63753131099135563
    x4        x44         1.5062758218420809
    x4        x45         0.77717104163500472
    x4        x46         2.6388005010935229
    x4        x47         -0.018583631662269166
    x4        x48         0.038982960182119129
    x4        x49         -1.4816509238235906
    x5        x5         4.1627102358236616
    x5        x6         -1.3484163693988465
    x5        x7         1.8406115725342758
    x5        x8         -0.73233955325320355
    x5        x9         0.86523291331958385
    x5        x10         0.59778567947160077
    x5        x11         0.94844447672254428
    x5        x12         -2.156834215969988
    x5        x13         -0.43468836382833465
    x5        x14         0.11887050129893173
    x5        x15         -0.26936454452646097
    x5        x16         -0.75306242456052053
    x5        x17         1.0841310183056703
    x5        x18         -0.4212654632387996
    x5        x19         1.0535449767352298
    x5        x20         -1.0662890868560349
    x5        x21         1.9277423643514924
    x5        x22         -1.9002667829059718
    x5        x23         -0.75035750911585497
    x5        x24         0.78677172717738098
    x5        x25         0.12495589473782241
    x5        x26         1.4620180131987657
    x5        x27         -0.88672280271498449
    x5        x28         -1.1173381522017416
    x5        x29         -1.2424406711584839
    x5        x30         0.4998527216440361
    x5        x31         1.1957720192799881
    x5        x32         -1.4519302691345104
    x5        x33         -1.9275947608471429
    x5        x34         0.22734066332179301
    x5        x35         1.5832805046310237
    x5        x36         -0.63431298633315758
    x5        x37         0.65971639626214917
    x5        x38         0.62931694494934631
    x5        x39         -0.49769721305644882
    x5        x40         -1.5386376074984285
    x5        x41         0.23251855692607457
    x5        x42         0.11456368636674219
    x5        x43         0.56477918656276738
    x5        x44         0.053600819144906102
    x5        x45         -0.42927904269680928
    x5        x46         1.3686944435960424
    x5        x47         -0.37606667315848008
    x5        x48         0.5358825174154902
    x5        x49         -0.81663044226675219
    x6        x6         5.1884031915781037
    x6        x7         -0.32614162574837624
    x6        x8         -0.19284214667339028
    x6        x9         -1.7026098038592885
    x6        x10         0.28377387973708723
    x6        x11         0.010812258524058396
    x6        x12         -0.47113568699381286
    x6        x13         -1.6800679419889593
    x6        x14         -0.21474307941752591
    x6        x15         -1.299672745376802
    x6        x16         0.16878692737189674
    x6        x17         -0.64125175865855766
    x6        x18         -0.17772620879879883
    x6        x19         -0.75954244113010905
    x6        x20         2.1705321098928634
    x6        x21         -1.030644889713932
    x6        x22         2.3290840513577393
    x6        x23         -0.1571606924681177
    x6        x24         -0.75694438014004006
    x6        x25         -1.8171839182178273
    x6        x26         -1.2000260807876928
    x6        x27         -2.0282783314139916
    x6        x28         1.1413287341897074
    x6        x29         2.478027646471979
    x6        x30         0.1308293539802067
    x6        x31         1.5373609610728427
    x6        x32         2.8302133714101201
    x6        x33         1.0962149643076629
    x6        x34         -1.5579825858099055
    x6        x35         0.34316875921698226
    x6        x36         1.0495381289403058
    x6        x37         -0.62634381900961233
    x6        x38         -0.67318061850609934
    x6        x39         1.5375214528932624
    x6        x40         -0.59116466085236052
    x6        x41         -0.81006576524886653
    x6        x42         0.29688657041003469
    x6        x43         1.6363344377687157
    x6        x44         -0.30192116577850342
    x6        x45         -1.0745025139639386
    x6        x46         -3.0971646015182897
    x6        x47         0.89846448677405366
    x6        x48         0.13154660165243606
    x6        x49         1.384656605100949
    x7        x7         5.1774996258644732
    x7        x8         -1.7713001040306635
    x7        x9         1.0917497345544815
    x7        x10         -0.70575154336338186
    x7        x11         0.29287134183681202
    x7        x12         -2.0331940204647307
    x7        x13         0.82638074193041988
    x7        x14         -1.1969123123090433
    x7        x15         -1.3922709187406617
    x7        x16         1.552402296182479
    x7        x17         0.46658123072817648
    x7        x18         1.3030911172083193
    x7        x19         -0.81806677712243492
    x7        x20         -1.0020709403808443
    x7        x21         1.9342324858062676
    x7        x22         -1.5191290161991662
    x7        x23         0.49921304993281662
    x7        x24         0.7583825454888814
    x7        x25         -0.50586894408932004
    x7        x26         1.2004951908236476
    x7        x27         -1.2933556994814599
    x7        x28         0.57877430832071231
    x7        x29         -1.1708548932089944
    x7        x30         1.3512688316792298
    x7        x31         0.98591767446623813
    x7        x32         -0.65855708740614594
    x7        x33         -3.2086827543242493
    x7        x34         0.82882002510501385
    x7        x35         1.391326440200745
    x7        x36         -0.47754658838397568
    x7        x37         0.57410309524140257
    x7        x38         -0.57774506634698941
    x7        x39         0.085779217870042973
    x7        x40         1.0289064493557696
    x7        x41         1.9037756290773771
    x7        x42         0.83553134216638891
    x7        x43         0.13142244751349841
    x7        x44         -0.32353219819833751
    x7        x45         0.82213621391158032
    x7        x46         0.73086765774522877
    x7        x47         -1.3972257541372428
    x7        x48         1.4750036321282589
    x7        x49         -0.080311543115776346
    x8        x8         3.2876515513766158
    x8        x9         -0.63891638714398524
    x8        x10         0.48324063382232957
    x8        x11         0.38590845241000588
    x8        x12         1.3008110219020756
    x8        x13         0.33522630024671118
    x8        x14         0.53954158576043765
    x8        x15         2.4473629602767226
    x8        x16         -0.59150741162665754
    x8        x17         -0.020181445158136847
    x8        x18         0.75097824784627987
    x8        x19         -0.09075234753777843
    x8        x20         0.55020630953621263
    x8        x21         -1.0475328108131412
    x8        x22         1.0603702620729132
    x8        x23         0.31372500413090415
    x8        x24         -0.22375530778334787
    x8        x25         1.3208265722567194
    x8        x26         -0.21447903292042611
    x8        x27         1.2891921915177533
    x8        x28         -0.51986710836096817
    x8        x29         -0.023831318123017683
    x8        x30         0.3668376637860592
    x8        x31         0.52479646741197772
    x8        x32         1.0206371383226158
    x8        x33         0.87102699217469426
    x8        x34         -0.5974361990047149
    x8        x35         -0.76103050829050645
    x8        x36         0.0057803662634070552
    x8        x37         -0.01979856341367088
    x8        x38         0.85246794353289923
    x8        x39         -0.31214542959467567
    x8        x40         -0.77412168559863181
    x8        x41         -0.98945612276504302
    x8        x42         0.3244428182287073
    x8        x43         0.91031353134267989
    x8        x44         2.0756323638635719
    x8        x45         -0.55112227592954155
    x8        x46         -0.048667770821484574
    x8        x47         0.7025647171946513
    x8        x48         -0.60432296212698822
    x8        x49         -0.21881291815009488
    x9        x9         3.3196322015832167
    x9        x10         -0.47577481683219291
    x9        x11         -0.43257708727159211
    x9        x12         0.24294047546046973
    x9        x13         1.9126130807871045
    x9        x14         0.41009434608854456
    x9        x15         0.017127111288762153
    x9        x16         1.2091760218857541
    x9        x17         1.7048192364008008
    x9        x18         0.18073628648971132
    x9        x19         -0.5557586614303518
    x9        x20         -1.3032185050488387
    x9        x21         0.89256458028073227
    x9        x22         -1.64346324138543
    x9        x23         1.3038360866295693
    x9        x24         0.1353529546620498
    x9        x25         0.26931039849695515
    x9        x26         -0.92124378927832085
    x9        x27         1.2614398566353755
    x9        x28         0.30342640750529776
    x9        x29         0.1455391933791487
    x9        x30         -0.47787386900633383
    x9        x31         -0.53614267290068096
    x9        x32         -1.8720303267950313
    x9        x33         -1.2060363682819168
    x9        x34         -0.054794096902662875
    x9        x35         0.72729425997930908
    x9        x36         -1.6433315178942127
    x9        x37         1.0851356338910563
    x9        x38         0.23337239480192951
    x9        x39         -0.48491570339324264
    x9        x40         0.56930201436199357
    x9        x41         0.022720391394217325
    x9        x42         -0.80446617334367454
    x9        x43         -1.5091578422643344
    x9        x44         -0.28476525998856173
    x9        x45         -0.70085281706271307
    x9        x46         0.54749143335916106
    x9        x47         -1.5938963727119422
    x9        x48         -0.54572579831487822
    x9        x49         -1.0166955826143456
    x10        x10         2.4433006311377872
    x10        x11         -0.13257087986459848
    x10        x12         -0.4963177112484064
    x10        x13         -0.55398687312739803
    x10        x14         0.28820534955259408
    x10        x15         0.44909427517854605
    x10        x16         -0.89705957051927498
    x10        x17         -0.78759848682380706
    x10        x18         -1.5079358579687629
    x10        x19         0.52938815927649718
    x10        x20         0.47312704822746371
    x10        x21         0.67291568282573078
    x10        x22         -0.33598808470724961
    x10        x23         -1.0224090847008849
    x10        x24         -0.096103261089577022
    x10        x25         -0.26911729115984401
    x10        x26         0.26290122178040193
    x10        x27         0.023984659201049197
    x10        x28         -1.2565089571664314
    x10        x29         -0.062886397760699986
    x10        x30         -0.30586471630883483
    x10        x31         0.53816617107280618
    x10        x32         0.034908586185964284
    x10        x33         0.13900309377064332
    x10        x34         -0.92089781765523482
    x10        x35         0.20785788627148161
    x10        x36         -0.044984307748501651
    x10        x37         -0.7573582804914949
    x10        x38         -0.1178154817994729
    x10        x39         -0.038849850446090455
    x10        x40         -1.2180639536076223
    x10        x41         -0.22475627863617331
    x10        x42         0.55313456289473317
    x10        x43         1.3563343256547238
    x10        x44         0.14173036657197075
    x10        x45         -1.3986221702022421
    x10        x46         -0.40289415534480094
    x10        x47         1.1799193578118268
    x10        x48         -0.19453646043962
    x10        x49         0.6270130317080338
    x11        x11         3.1150585209511581
    x11        x12         -0.68947528445783801
    x11        x13         -0.73429587598431156
    x11        x14         0.44150025009666793
    x11        x15         0.25405513987879796
    x11        x16         -1.0746655996827903
    x11        x17         1.026970047059508
    x11        x18         0.93251342529045644
    x11        x19         0.21027391583792898
    x11        x20         -1.024643934035008
    x11        x21         -0.41889437457424994
    x11        x22         -0.078448236522980719
    x11        x23         -0.20574333032933009
    x11        x24         0.30472914013786051
    x11        x25         1.3905550048024347
    x11        x26         0.93331137977301792
    x11        x27         -1.5636314236981144
    x11        x28         -0.76804593247267405
    x11        x29         -0.61218710143586108
    x11        x30         1.0133472385415361
    x11        x31         1.664910116494893
    x11        x32         0.1205393951404431
    x11        x33         -1.0015115936696213
    x11        x34         -0.42602058760771794
    x11        x35         0.1129997156074187
    x11        x36         -0.42345031465157046
    x11        x37         0.39609963321023745
    x11        x38         0.64851934166371095
    x11        x39         1.0916553299737639
    x11        x40         -1.1828378517765616
    x11        x41         -0.29439569385268061
    x11        x42         -0.0053855821514312788
    x11        x43         -0.45602711441428467
    x11        x44         0.73645387940708873
    x11        x45         0.63716777638731514
    x11        x46         0.88597263708927754
    x11        x47         -0.26244085255499006
    x11        x48         0.29362162030003003
    x11        x49         -1.2184013277601784
    x12        x12         4.1237930972963959
    x12        x13         1.8661867462090167
    x12        x14         0.18408407261397769
    x12        x15         1.5780986030447124
    x12        x16         -0.10137748637190247
    x12        x17         -0.49016062278164529
    x12        x18         0.54455152626520209
    x12        x19         -0.72564616409355065
    x12        x20         0.12178572785176249
    x12        x21         -0.65426339262232458
    x12        x22         0.90415054483561175
    x12        x23         1.0806741514978346
    x12        x24         -1.2379147303210936
    x12        x25         1.0306769698386953
    x12        x26         -1.1081529942249517
    x12        x27         1.9842199794551816
    x12        x28         0.37708897930049973
    x12        x29         0.54274696181313298
    x12        x30         -1.0071119811303166
    x12        x31         -1.4538871472513792
    x12        x32         0.66091054828945128
    x12        x33         0.81316206101952659
    x12        x34         -0.77965635906539088
    x12        x35         -1.3708962766816291
    x12        x36         -0.090348211089186198
    x12        x37         0.24327314347180132
    x12        x38         1.0197252567487856
    x12        x39         -0.20827836544023856
    x12        x40         0.18312940052159332
    x12        x41         -0.45688458267962823
    x12        x42         -1.7127255848252776
    x12        x43         -1.1314178174362197
    x12        x44         1.0624475579545094
    x12        x45         -0.062696114565167216
    x12        x46         -0.55999590166184399
    x12        x47         -0.11478390429615574
    x12        x48         -1.6524848892073356
    x12        x49         0.37656793496746316
    x13        x13         5.2089453849776097
    x13        x14         -0.38855279079726485
    x13        x15         0.46096465219146449
    x13        x16         0.28673407926061972
    x13        x17         -0.22028480553826751
    x13        x18         0.75101048837736695
    x13        x19         -1.3638332354263529
    x13        x20         -1.5578688388182411
    x13        x21         1.0522321323712027
    x13        x22         -0.80108956000148668
    x13        x23         1.9438780277965675
    x13        x24         0.11542162258120471
    x13        x25         0.88869223257470897
    x13        x26         -0.62101779517561673
    x13        x27         1.5924572688811622
    x13        x28         1.6041094146583792
    x13        x29         -0.68195094703925574
    x13        x30         -1.1755094665655481
    x13        x31         -0.97304175284433359
    x13        x32         -1.0966304118989847
    x13        x33         -1.079500798288477
    x13        x34         -0.79037231020177612
    x13        x35         0.1094412462158086
    x13        x36         -1.0117506163361383
    x13        x37         0.043676705901299698
    x13        x38         0.30133431589285442
    x13        x39         -0.85997586723876784
    x13        x40         1.5189775679326949
    x13        x41         0.48962177324353506
    x13        x42         -2.0190244242467155
    x13        x43         -1.4675828446297061
    x13        x44         0.44981694941723194
    x13        x45         0.041371761958500036
    x13        x46         -0.45571024559112
    x13        x47         -1.0400107483608119
    x13        x48         -1.7959094763291323
    x13        x49         0.43266491106166949
    x14        x14         2.5575521609874716
    x14        x15         0.45375969521937631
    x14        x16         0.21896534729499265
    x14        x17         1.1742216891748012
    x14        x18         0.070811459437894159
    x14        x19         -0.047270479094644595
    x14        x20         -0.17661086952079302
    x14        x21         -0.8222205850529557
    x14        x22         -0.052123332990354578
    x14        x23         0.024003390904283023
    x14        x24         0.35353319296688601
    x14        x25         1.0459848708373924
    x14        x26         -1.1209484948211117
    x14        x27         0.097841003512334421
    x14        x28         -0.89262376442303148
    x14        x29         0.67264234320603178
    x14        x30         -0.13932408347568012
    x14        x31         1.0134375755006206
    x14        x32         -1.1625576566917335
    x14        x33         1.2286592133979719
    x14        x34         -0.13496982707047062
    x14        x35         -0.45125650335156609
    x14        x36         -0.71724621845324621
    x14        x37         0.46977089732241939
    x14        x38         -0.66266731023200365
    x14        x39         -0.17590695907451875
    x14        x40         -1.0943737579830126
    x14        x41         -0.81462569865437029
    x14        x42         0.062000573599854947
    x14        x43         -0.43151876617571605
    x14        x44         -0.21786325746595087
    x14        x45         -0.88946208642371993
    x14        x46         -0.12817447837014107
    x14        x47         -0.36867560883151512
    x14        x48         -0.082067041581978598
    x14        x49         -1.0306324955094763
    x15        x15         4.7992263147094532
    x15        x16         0.24738993189922256
    x15        x17         0.6704467893272702
    x15        x18         1.0399453616145653
    x15        x19         -0.092445210642707387
    x15        x20         0.43108005990233184
    x15        x21         -0.31420080050836346
    x15        x22         0.096874271386150901
    x15        x23         0.45862210583943769
    x15        x24         -0.99072220005912859
    x15        x25         1.7208051796925536
    x15        x26         0.10591890737477584
    x15        x27         2.6252226088648407
    x15        x28         -1.8667226005808286
    x15        x29         -0.33742961865583398
    x15        x30         1.0869798834625022
    x15        x31         0.069382236680336107
    x15        x32         0.9843344894352335
    x15        x33         -0.72156286907296407
    x15        x34         -0.43038384464566559
    x15        x35         -0.81747200416714549
    x15        x36         -0.78263507464780979
    x15        x37         0.89219248948743957
    x15        x38         1.8852964078005476
    x15        x39         -0.25369432219398586
    x15        x40         -1.1855620459052465
    x15        x41         -0.58960712503831447
    x15        x42         0.9627127659228949
    x15        x43         0.85976944119191467
    x15        x44         3.1333888005518515
    x15        x45         -0.97813999804955687
    x15        x46         1.2919316743901537
    x15        x47         0.22042452444326446
    x15        x48         -0.19800118811984055
    x15        x49         -0.85910012456120721
    x16        x16         5.1143577146952639
    x16        x17         1.3172572124412496
    x16        x18         1.7573659352009532
    x16        x19         -1.7647347581727952
    x16        x20         0.62904118669007558
    x16        x21         -0.46022279292781826
    x16        x22         -0.31286556359974127
    x16        x23         1.2947093030847239
    x16        x24         0.008029950798422239
    x16        x25         -0.16084369810990556
    x16        x26         -1.5951313481362177
    x16        x27         1.2024711636905561
    x16        x28         -0.063108240866297516
    x16        x29         1.0010900792335633
    x16        x30         1.4313786303520186
    x16        x31         0.29747039713490669
    x16        x32         -0.47682748291223676
    x16        x33         -0.55753210579399792
    x16        x34         1.3084669010447314
    x16        x35         -0.41420191313959936
    x16        x36         -0.97090015415921382
    x16        x37         1.1476323244188356
    x16        x38         -1.6441516680935178
    x16        x39         -0.1192085344269089
    x16        x40         1.5568530232219986
    x16        x41         1.0159621390303832
    x16        x42         2.2823095305850543
    x16        x43         -0.10524411618764279
    x16        x44         -0.12087349076877039
    x16        x45         -0.43486871653357256
    x16        x46         0.11685530465924385
    x16        x47         -1.6786843426613602
    x16        x48         1.7849191110707425
    x16        x49         -0.75967280487173894
    x17        x17         4.9596910867859521
    x17        x18         1.023902102004024
    x17        x19         -0.21619566433645712
    x17        x20         -0.78312518472515913
    x17        x21         -0.97533073055208741
    x17        x22         -0.68045178659000238
    x17        x23         1.5167544767187338
    x17        x24         -0.022044305474603818
    x17        x25         0.43497376509539021
    x17        x26         -1.383482095498757
    x17        x27         0.64861295118077744
    x17        x28         0.054805420162674902
    x17        x29         1.426172515708277
    x17        x30         0.80534841515204225
    x17        x31         0.71916510540330447
    x17        x32         -0.64005032328335898
    x17        x33         -0.86237009611608506
    x17        x34         -0.2494978856047918
    x17        x35         1.0851132700413253
    x17        x36         -1.9930558287338624
    x17        x37         2.0654708161977742
    x17        x38         1.1896046218843899
    x17        x39         0.74753038102408931
    x17        x40         -0.34152438156857856
    x17        x41         -1.6082455423028152
    x17        x42         0.12540560618858287
    x17        x43         -1.3625754368241605
    x17        x44         0.66435206471267394
    x17        x45         -0.9861170639885557
    x17        x46         0.92641438837393797
    x17        x47         -1.814972263940607
    x17        x48         0.066295485838925555
    x17        x49         -2.7547730531258656
    x18        x18         4.8073643050530244
    x18        x19         -1.4011733992376074
    x18        x20         -0.16908164947355864
    x18        x21         -0.86264147729970475
    x18        x22         0.91508623722858373
    x18        x23         1.3508788270447096
    x18        x24         0.51465930012960348
    x18        x25         1.8856025108336092
    x18        x26         -0.012469115744697765
    x18        x27         -0.19748478201553718
    x18        x28         0.55767078697815098
    x18        x29         -0.50886160381787837
    x18        x30         1.8940716473930346
    x18        x31         1.5941143284255841
    x18        x32         0.36289840286299468
    x18        x33         -0.54799236395331619
    x18        x34         1.3262260680225657
    x18        x35         -0.77565770353702002
    x18        x36         0.080639315941274214
    x18        x37         1.3588767991137187
    x18        x38         -0.28754240260954889
    x18        x39         -0.41600901249131028
    x18        x40         0.33879509813117875
    x18        x41         0.6917388633498458
    x18        x42         0.5982652531192717
    x18        x43         -0.15715960315961289
    x18        x44         1.5276592586515003
    x18        x45         1.4860696825227324
    x18        x46         0.5118537082693333
    x18        x47         -1.5732274525880772
    x18        x48         1.1373471690533636
    x18        x49         -0.95688347869692325
    x19        x19         2.7946839330434754
    x19        x20         0.0070063619200116068
    x19        x21         0.27356927388398422
    x19        x22         -0.31443243407807075
    x19        x23         -1.2614496257297376
    x19        x24         0.16760856611501965
    x19        x25         -0.43040811726034106
    x19        x26         1.1385950404356484
    x19        x27         -0.14303721666571023
    x19        x28         -0.57944005857351977
    x19        x29         -0.66958314290326837
    x19        x30         -0.46624890244382161
    x19        x31         -0.74302807489840317
    x19        x32         -0.24719926006786569
    x19        x33         0.57165163763920646
    x19        x34         0.46066314858544805
    x19        x35         0.39966781210542174
    x19        x36         0.65017437209858164
    x19        x37         -0.25407832642657591
    x19        x38         0.92624031231082182
    x19        x39         -0.46475273929337702
    x19        x40         -0.85185478760043531
    x19        x41         -0.56186005708184494
    x19        x42         -0.32760381479561768
    x19        x43         0.35150695568299517
    x19        x44         -0.26347538519342972
    x19        x45         0.27893960653988376
    x19        x46         0.97993501914084968
    x19        x47         0.90514428946396608
    x19        x48         -0.15593015909857888
    x19        x49         -0.10937790846452759
    x20        x20         3.6188648182531229
    x20        x21         -0.61697465454341571
    x20        x22         1.8261549433088342
    x20        x23         -0.42469104795664864
    x20        x24         -0.75464297510121636
    x20        x25         -1.4336582714261881
    x20        x26         -0.79976008608709148
    x20        x27         0.27744586263279791
    x20        x28         0.19723428813414753
    x20        x29         1.5778841653985711
    x20        x30         0.22225483781527158
    x20        x31         0.27214168451169823
    x20        x32         2.1478331523875798
    x20        x33         1.5753177147228117
    x20        x34         -0.08679529059056755
    x20        x35         -0.14946506905264126
    x20        x36         1.2763234589312349
    x20        x37         -0.14129382579619654
    x20        x38         -0.12041570208410615
    x20        x39         -0.26593303948660357
    x20        x40         -0.67109527309393147
    x20        x41         -0.62136752734663114
    x20        x42         0.93754709063997299
    x20        x43         2.2955604380044439
    x20        x44         0.5411993834886758
    x20        x45         -1.1023905821074245
    x20        x46         -1.6519888720139781
    x20        x47         1.0418017312455334
    x20        x48         0.41311030226969664
    x20        x49         1.1990849201155578
    x21        x21         4.3200973144203729
    x21        x22         -1.9305337964100375
    x21        x23         -0.70841762677128728
    x21        x24         -0.42825886689297699
    x21        x25         -0.3438319416014245
    x21        x26         1.4320375758177439
    x21        x27         -0.16779841459082157
    x21        x28         -1.104518032779628
    x21        x29         -1.3164417515605844
    x21        x30         -0.32557679589861044
    x21        x31         -0.01537074942363963
    x21        x32         -0.79938714105009012
    x21        x33         -2.685871163942529
    x21        x34         -0.44051742830090174
    x21        x35         0.94244733967752359
    x21        x36         -0.23023893817129293
    x21        x37         0.15971073967345939
    x21        x38         0.62569789229147332
    x21        x39         -0.58856936985511688
    x21        x40         -1.2200511006502952
    x21        x41         1.4953701502699139
    x21        x42         -0.78855393184595846
    x21        x43         0.63581443667699589
    x21        x44         0.019794897541729764
    x21        x45         -0.62722615767872636
    x21        x46         0.41905385921993527
    x21        x47         -0.093139528904952959
    x21        x48         -0.11033617186377827
    x21        x49         1.0556827693212338
    x22        x22         3.8582491273552875
    x22        x23         0.29233675076690785
    x22        x24         -0.20991752825033791
    x22        x25         -0.45825765654827472
    x22        x26         -0.91199260026124873
    x22        x27         -0.53629697654310859
    x22        x28         1.6575040990571905
    x22        x29         1.4015591375469183
    x22        x30         -0.054317528652353737
    x22        x31         0.49683344145119196
    x22        x32         2.3183827860899702
    x22        x33         2.4711246813573648
    x22        x34         -0.20772358092190021
    x22        x35         -0.57888750827715363
    x22        x36         1.587181596874367
    x22        x37         -0.37215260760815483
    x22        x38         -0.098475196930564696
    x22        x39         0.0071162210009771843
    x22        x40         0.002753286882476301
    x22        x41         -1.1392237655211852
    x22        x42         -0.30781892336731859
    x22        x43         1.1001461397291479
    x22        x44         0.56221134212865864
    x22        x45         0.2715906492025299
    x22        x46         -2.0039686044577665
    x22        x47         0.79793735772852603
    x22        x48         -0.3447313424000828
    x22        x49         0.88099760992284692
    x23        x23         3.1298860467349789
    x23        x24         -0.1617198991275634
    x23        x25         0.15707542473972247
    x23        x26         -1.4597199774102436
    x23        x27         1.1535321268621608
    x23        x28         1.7578857244719548
    x23        x29         0.99322924267025592
    x23        x30         -0.056267356373645556
    x23        x31         -0.3178836340284914
    x23        x32         0.21728223376813108
    x23        x33         -0.39035693646740066
    x23        x34         -0.50089573670874432
    x23        x35         0.37432460536689011
    x23        x36         -0.99625457049893229
    x23        x37         0.85272065535667374
    x23        x38         0.55446147789092071
    x23        x39         0.15635073596975391
    x23        x40         1.358851858044986
    x23        x41         -0.67157233678237849
    x23        x42         -0.7341990100300787
    x23        x43         -1.1292335216556331
    x23        x44         0.68544294335242695
    x23        x45         -0.23121003134283724
    x23        x46         -0.52928071419760248
    x23        x47         -1.2810878909366907
    x23        x48         -0.80713167912105421
    x23        x49         -0.7043202137321144
    x24        x24         3.0695127618813798
    x24        x25         0.51716149533643863
    x24        x26         0.35739804408970183
    x24        x27         -0.91544701767309755
    x24        x28         0.76183994008215794
    x24        x29         -1.1333866309406475
    x24        x30         0.11778116684296284
    x24        x31         0.83155060080382104
    x24        x32         -1.7843778899191978
    x24        x33         1.1918506597264176
    x24        x34         1.4989962674592312
    x24        x35         0.082461180004405804
    x24        x36         0.34978519561980193
    x24        x37         -0.54075435882765333
    x24        x38         -1.8402171734117863
    x24        x39         -1.1926709612336652
    x24        x40         0.95133158026740849
    x24        x41         0.35966930051900514
    x24        x42         0.60241905419508046
    x24        x43         0.015927018356602304
    x24        x44         -1.1083417297175391
    x24        x45         1.0976300235121856
    x24        x46         0.31178863628013792
    x24        x47         -0.20972051366278271
    x24        x48         0.69261100945654175
    x24        x49         -0.35896016245781726
    x25        x25         4.2271369081162131
    x25        x26         0.57016158085243229
    x25        x27         0.21897904210617813
    x25        x28         -1.6569610986427468
    x25        x29         -1.5952369078246751
    x25        x30         0.85299244591058754
    x25        x31         1.1876980817957012
    x25        x32         -1.3503756183123785
    x25        x33         -0.35039433717545582
    x25        x34         0.53682445595600958
    x25        x35         -1.4941602197662587
    x25        x36         -0.68607583765731739
    x25        x37         0.59791301505023076
    x25        x38         -0.18750249500936342
    x25        x39         -0.36110451409883154
    x25        x40         -0.93437266023379661
    x25        x41         0.59745701016163388
    x25        x42         0.040649745454673147
    x25        x43         -1.0090616481904457
    x25        x44         1.1485272644871574
    x25        x45         0.94153947356846102
    x25        x46         1.5433514009729503
    x25        x47         -0.75045253312168358
    x25        x48         0.23603350145645269
    x25        x49         -1.2657279874887779
    x26        x26         4.0257306166725044
    x26        x27         -1.0034684617643317
    x26        x28         -1.2115118956252908
    x26        x29         -2.6687539532328115
    x26        x30         0.8878025565197748
    x26        x31         -0.005896349531185386
    x26        x32         0.015924215857380099
    x26        x33         -1.82333893447249
    x26        x34         0.90399645517165406
    x26        x35         0.0429814056811227
    x26        x36         0.81364723119490978
    x26        x37         -0.50841711597443562
    x26        x38         0.71740705896464563
    x26        x39         -0.13021225390494473
    x26        x40         -0.46209527042329229
    x26        x41         1.4482227303082542
    x26        x42         0.48168223734035043
    x26        x43         0.63660886577029485
    x26        x44         0.5232652621414513
    x26        x45         1.7271718957160078
    x26        x46         2.0153480595533453
    x26        x47         0.70369676090721667
    x26        x48         0.86612933335123232
    x26        x49         0.32134627886341338
    x27        x27         5.019688546719137
    x27        x28         -0.36582012555306942
    x27        x29         0.26885294167561491
    x27        x30         -0.36430130148170481
    x27        x31         -2.2964200555935279
    x27        x32         -0.12691175198711441
    x27        x33         0.017595662913312049
    x27        x34         0.10075010931068211
    x27        x35         -0.45357210865126241
    x27        x36         -1.0309501562425034
    x27        x37         0.65249870097073615
    x27        x38         1.3564210873414906
    x27        x39         -0.94882441552121521
    x27        x40         0.96458328903869395
    x27        x41         -0.57124843279860382
    x27        x42         0.30327113822509777
    x27        x43         -0.31131883806354821
    x27        x44         1.489212650332868
    x27        x45         -1.0744379241359407
    x27        x46         0.99024830493771188
    x27        x47         -0.20072411560776091
    x27        x48         -0.83684667057397999
    x27        x49         -0.51100856287042606
    x28        x28         5.509493870134448
    x28        x29         1.133022550630868
    x28        x30         -1.2907385716954651
    x28        x31         -0.97436452926414518
    x28        x32         0.79474557340505614
    x28        x33         1.6285255380953123
    x28        x34         -0.0070018184681144846
    x28        x35         1.0726957557927812
    x28        x36         0.92652281277936066
    x28        x37         -0.42375176399159498
    x28        x38         -0.12981532496396125
    x28        x39         -0.53268440937630435
    x28        x40         2.5823854767082377
    x28        x41         -1.0489541861231437
    x28        x42         -1.9190530408367354
    x28        x43         -0.61557607313961604
    x28        x44         -0.90371672961607086
    x28        x45         0.94152478911223414
    x28        x46         -2.1079429889866543
    x28        x47         -0.37093651400980515
    x28        x48         -1.3408904143607101
    x28        x49         0.79478645195799258
    x29        x29         4.364772043208486
    x29        x30         -0.62610572974255752
    x29        x31         0.18105774500953295
    x29        x32         1.5396382851909312
    x29        x33         1.2948153931372874
    x29        x34         -1.6199741947873749
    x29        x35         0.58779363799210083
    x29        x36         -0.42083810739577593
    x29        x37         0.57886236854164208
    x29        x38         0.30995385304940115
    x29        x39         1.05666198098186
    x29        x40         -0.34852598353269243
    x29        x41         -1.9316541997806074
    x29        x42         -0.47178416221436253
    x29        x43         0.1154911187579134
    x29        x44         -0.17148644094610838
    x29        x45         -2.1208586376640359
    x29        x46         -2.3699870093824194
    x29        x47         -0.16134554231837539
    x29        x48         -0.80116259542981538
    x29        x49         -0.040414277202657126
    x30        x30         3.4581793694216496
    x30        x31         1.5083507394398408
    x30        x32         0.73158386068701453
    x30        x33         -1.560708355701804
    x30        x34         0.91876955462998133
    x30        x35         -0.26233572187535292
    x30        x36         -0.26375977481202256
    x30        x37         0.74997123304107549
    x30        x38         -0.089290042764688951
    x30        x39         0.62541113083333499
    x30        x40         -0.19965233816147135
    x30        x41         0.81992779629010948
    x30        x42         2.4585545829877087
    x30        x43         0.88232480688149773
    x30        x44         1.3606520183107549
    x30        x45         0.54643595373968989
    x30        x46         1.3861639499291569
    x30        x47         -0.4895058262461166
    x30        x48         2.009165038037525
    x30        x49         -1.0081075925365226
    x31        x31         4.9679858236601042
    x31        x32         0.10212734715333628
    x31        x33         -0.30660325768043895
    x31        x34         -0.49316975378871186
    x31        x35         0.22207597184064828
    x31        x36         -0.14182971271999231
    x31        x37         0.41561735435173264
    x31        x38         -1.2065894543330296
    x31        x39         0.32126731449992935
    x31        x40         -2.2001804542071199
    x31        x41         0.038966965662170873
    x31        x42         1.0945763211165453
    x31        x43         1.5781626654472449
    x31        x44         0.66458335976326621
    x31        x45         -0.79461870108882571
    x31        x46         -0.93569074552243725
    x31        x47         -0.2739819438957245
    x31        x48         1.1398904241079886
    x31        x49         -0.40087264859128524
    x32        x32         5.2995141666888816
    x32        x33         -0.36165022021084964
    x32        x34         -1.6023727064656967
    x32        x35         0.26910244325169402
    x32        x36         1.0473851288189515
    x32        x37         -0.12843761193703099
    x32        x38         1.9885123028315079
    x32        x39         1.5368279789672259
    x32        x40         -0.48304561137576291
    x32        x41         -0.9928582556476766
    x32        x42         0.20838955417185079
    x32        x43         1.8247590105942182
    x32        x44         2.0582923218735631
    x32        x45         -0.54622953551526432
    x32        x46         -1.4671483414454625
    x32        x47         1.2112960526667866
    x32        x48         -0.33527774015193257
    x32        x49         1.1144873673827487
    x33        x33         6.617462246955979
    x33        x34         1.0988119913803307
    x33        x35         -1.1843535402349126
    x33        x36         1.7907369135568589
    x33        x37         -1.0626874083120168
    x33        x38         -2.0270734115975841
    x33        x39         -1.6833653769186998
    x33        x40         0.45433653253082584
    x33        x41         -1.6000187468602594
    x33        x42         -0.43956927150169822
    x33        x43         0.4591505020172304
    x33        x44         -1.5663864346737257
    x33        x45         0.21542775728170838
    x33        x46         -1.9853557592653357
    x33        x47         1.0799853912773225
    x33        x48         -0.57522684657308965
    x33        x49         0.64253824122572312
    x34        x34         4.474291286925216
    x34        x35         -0.88790102678788385
    x34        x36         1.0293228980774503
    x34        x37         0.24554157484378408
    x34        x38         -1.6232340716924401
    x34        x39         -1.7923587269476089
    x34        x40         1.3573389543696541
    x34        x41         1.3731135910099841
    x34        x42         1.4626284210143912
    x34        x43         -0.08975112521950053
    x34        x44         -0.91478509038135547
    x34        x45         2.2815341532815245
    x34        x46         1.7934215157680025
    x34        x47         -0.62062540709032366
    x34        x48         1.9441087148100458
    x34        x49         -0.52760945048920815
    x35        x35         3.0708480120350923
    x35        x36         -0.4516312040848694
    x35        x37         0.30797810023754707
    x35        x38         1.0541686279139899
    x35        x39         0.24806901611639429
    x35        x40         -0.14072162467448968
    x35        x41         -0.80776629745687456
    x35        x42         -0.57511911186503395
    x35        x43         0.45507835542414371
    x35        x44         -0.044647872172309026
    x35        x45         -0.9670736519726848
    x35        x46         -0.44269830724390447
    x35        x47         -0.1558579261372505
    x35        x48         -0.49063307334099793
    x35        x49         -0.10165430417605967
    x36        x36         3.2584092820012982
    x36        x37         -0.83768276213742554
    x36        x38         -0.52626801739230356
    x36        x39         -0.97028516551693267
    x36        x40         -0.044930362688937617
    x36        x41         0.30059967222956135
    x36        x42         -0.27768917480210598
    x36        x43         1.3479231627747266
    x36        x44         -0.39959660036089695
    x36        x45         1.2404996501439489
    x36        x46         -0.8465694085666633
    x36        x47         1.099078802748547
    x36        x48         0.28214108757490908
    x36        x49         1.5350889755977273
    x37        x37         2.873288719390124
    x37        x38         1.1440996684921261
    x37        x39         -0.040287495269337857
    x37        x40         -0.91613248716395612
    x37        x41         -0.35454531804988565
    x37        x42         -0.26030077482195074
    x37        x43         -0.54612530309080298
    x37        x44         0.97701068179301942
    x37        x45         -0.39621571577456505
    x37        x46         0.7526244951596851
    x37        x47         -1.4077461898070929
    x37        x48         0.26065508591468378
    x37        x49         -1.3306666046805748
    x38        x38         5.1846143320043963
    x38        x39         0.86019548909360222
    x38        x40         -1.3079236480097511
    x38        x41         -1.4618497412021045
    x38        x42         -1.6823102689539668
    x38        x43         -0.21509730343283379
    x38        x44         2.4378231068383842
    x38        x45         -0.63525327126953057
    x38        x46         0.94309143062008904
    x38        x47         0.15553963337434409
    x38        x48         -1.5603533156054263
    x38        x49         -0.58932669619739808
    x39        x39         3.8109142997529659
    x39        x40         -0.081811409747905586
    x39        x41         -0.36255721985453276
    x39        x42         0.38156878973527247
    x39        x43         -0.80905757540215384
    x39        x44         0.26247018764150659
    x39        x45         -0.43231656092923026
    x39        x46         -0.075211667240740424
    x39        x47         0.036582992292487217
    x39        x48         -0.0072788092295669087
    x39        x49         -0.55790136002252122
    x40        x40         5.4805708684902301
    x40        x41         0.70804371050572557
    x40        x42         0.76061496808966644
    x40        x43         -1.4790086072524267
    x40        x44         -1.281285498355031
    x40        x45         1.7959025465442031
    x40        x46         0.3225192298509178
    x40        x47         -0.53243852051604512
    x40        x48         0.23547172624684878
    x40        x49         0.032153212278698322
    x41        x41         3.6767920872780353
    x41        x42         1.0495008336366523
    x41        x43         -0.017705679493284665
    x41        x44         -0.61225612107804728
    x41        x45         1.3946509117352308
    x41        x46         1.0587686626462962
    x41        x47         -0.38301983922019989
    x41        x48         1.4783037988458669
    x41        x49         0.72052223829281892
    x42        x42         5.4768618283734822
    x42        x43         1.737584564180833
    x42        x44         0.44972959888497294
    x42        x45         -0.12365161612991127
    x42        x46         1.3450556952657391
    x42        x47         0.33153267224512595
    x42        x48         2.8042619097523436
    x42        x49         -0.6966061735938599
    x43        x43         4.7846473786051504
    x43        x44         1.2305400628149785
    x43        x45         -1.2758576883095667
    x43        x46         -1.1529485717220516
    x43        x47         1.5679115966433217
    x43        x48         0.89722784955345802
    x43        x49         1.4911986792231733
    x44        x44         4.4054339284937409
    x44        x45         -0.68869865674812925
    x44        x46         0.68412037536866566
    x44        x47         0.15084466285283255
    x44        x48         -0.25706260971618061
    x44        x49         -0.47738453934183567
    x45        x45         4.5456683095338271
    x45        x46         1.5844952997938533
    x45        x47         -0.36685915777321382
    x45        x48         0.88185200541364661
    x45        x49         -0.15258625839097542
    x46        x46         4.8932616370788455
    x46        x47         -0.63988016800115011
    x46        x48         1.2671742331619915
    x46        x49         -1.8860178244000945
    x47        x47         2.9436803113128263
    x47        x48         -0.35987819819434225
    x47        x49         1.286906194106799
    x48        x48         3.6152088769381892
    x48        x49         -0.53129085716539692
    x49        x49         3.5608785215597187
ENDATA
